
&CONTROL
    calculation   = 'vc-relax'
    restart_mode  = 'from_scratch'
    prefix        = 'Landau_7'
    pseudo_dir    = '/cluster/scratch/mnoe/QE/pps'
    outdir        = './'
    forc_conv_thr = 1.0d-7
    etot_conv_thr = 1.0d-7

/
&SYSTEM
    ibrav       = 0
    nat         = 32
    ntyp        = 2
    ecutwfc     = 120
    occupations = 'smearing'
    degauss     = 7.35d-4
    tot_charge  = -0.0
/
&ELECTRONS
    conv_thr    = 1.0d-8
    diagonalization = 'david'
/


&IONS
ion_dynamics = 'bfgs'
/

&CELL
cell_dynamics = 'bfgs'
cell_dofree = 'all'
/
CELL_PARAMETERS angstrom
        7.3236460686         0.0000000000         0.0000000000
        0.0000000000         7.7495899200         0.0000000000
        0.0000000000         0.0000000000         7.3236460686

ATOMIC_SPECIES
W 183.84 W_ONCV_LDA-4.0.upf
O 15.9994 O_ONCV_LDA-3.0.upf

ATOMIC_POSITIONS crystal
W 0.23996224387777187	0.27911439057555665	0.002341696332053674	 0 0 0
W 0.7529122300629156	0.7208856094244434	-0.009887296317946345	 0 0 0
W 0.2600377561222281	0.22088562533661388	0.5023416963651495	 0 0 0
W 0.7470877454381437	0.7791143878528441	0.4901126886651495	 0 0 0
W 0.7600377335381437	0.27911439057555665	0.4976583036348505	 0 0 0
W 0.24708775612222814	0.7208856094244434	0.5098873113348505	 0 0 0
W 0.7399622419629156	0.22088562533661388	-0.0023416882820536922	 0 0 0
W 0.25291224387777184	0.7791143878528441	0.009887304367946327	 0 0 0
O 0.23694712404176266	0.007572013750493607	-0.0050598126290204454	 0 0 0
O 0.7608381013970337	-0.007572009906075481	-0.008860815079020432	 0 0 0
O 0.26305286362836455	0.4924279873712121	0.49494017154110675	 0 0 0
O 0.7391618679859595	0.5075720099060754	0.49113917819110675	 0 0 0
O 0.7630528427859595	0.007572013750493607	0.5050598201718619	 0 0 0
O 0.23916186012836452	-0.007572009906075481	0.5088608135218619	 0 0 0
O 0.7369471265970337	0.4924279873712121	0.00505981017902046	 0 0 0
O 0.26083812754176267	0.5075720099060754	0.008860812629020446	 0 0 0
O 0.5033351855345675	0.23618843323439767	0.4562535665970992	 0 0 0
O 0.4997931799345675	0.7606954395259893	0.5437464305045294	 0 0 0
O -0.0033351838287574128	0.2638115562656023	0.9562535995970992	 0 0 0
O 0.00020681582124259254	0.7393045912791957	0.043746423862124906	 0 0 0
O 0.4966648144654325	0.23618843323439767	0.043746423862124906	 0 0 0
O 0.5002068200654325	0.7606954395259893	0.9562535995970992	 0 0 0
O 0.0033351680345674933	0.2638115562656023	0.5437464305045294	 0 0 0
O -0.000206831615432512	0.7393045912791957	0.4562535665970992	 0 0 0
O 0.7062535840901997	0.2544657776236532	0.7483474124976196	 0 0 0
O 0.29374641880817165	0.759813800183311	0.25371641056247585	 0 0 0
O 0.7937464450992585	0.24553421625828062	0.24834744311247586	 0 0 0
O 0.20625358259709925	0.7401862307679384	0.7537164026976196	 0 0 0
O 0.29374641880817165	0.2544657776236532	0.7516525752395721	 0 0 0
O 0.7062535840901997	0.759813800183311	0.24628361218752415	 0 0 0
O 0.20625358259709925	0.24553421625828062	0.25165257963752413	 0 0 0
O 0.7937464450992585	0.7401862307679384	0.746283585039572	 0 0 0

K_POINTS automatic
6 6 6 0 0 0
