&CONTROL
    calculation   = 'scf'
    restart_mode  = 'from_scratch'
    prefix        = 'Landau_12'
    pseudo_dir    = '/cluster/scratch/mnoe/QE/pps'
    outdir        = './'
/
&SYSTEM
    ibrav       = 0
    nat         = 32
    ntyp        = 2
    ecutwfc     = 120
    occupations = 'smearing'
    degauss     = 7.35d-4
    tot_charge  = -0.6
/
&ELECTRONS
    conv_thr    = 1.0d-8
    diagonalization = 'david'
/

CELL_PARAMETERS angstrom
   7.458435370   0.000000000   0.000000000
   0.000000000   7.643773048   0.000000000
   0.000000000   0.000000000   7.459344796

ATOMIC_SPECIES
W 183.84 W_ONCV_LDA-4.0.upf
O 15.9994 O_ONCV_LDA-3.0.upf

ATOMIC_POSITIONS crystal
W 0.24722814143970168	0.2724350076098981	0.002617533611906506	
W 0.752771805913159	0.7275649923901019	-0.0026175301658120874	
W 0.2527718585602983	0.2275650105213534	0.5026175351102085	
W 0.7472280938867889	0.7724350736786987	0.49738246488979154	
W 0.752771805913159	0.2724350076098981	0.49738246488979154	
W 0.24722814143970168	0.7275649923901019	0.5026175351102085	
W 0.7472280938867889	0.2275650105213534	-0.0026175301658120874	
W 0.2527718585602983	0.7724350736786987	0.002617533611906506	
O 0.2448862935839382	0.005752351743933201	0.0008135779449956716	
O 0.7551136489743563	-0.005752394500217443	-0.0008135789938070125	
O 0.2551137040187787	0.4942476715685831	0.5008135740494106	
O 0.7448862508255916	0.5057523945002175	0.499186421006193	
O 0.7551136489743563	0.005752351743933201	0.499186421006193	
O 0.2448862935839382	-0.005752394500217443	0.5008135740494106	
O 0.7448862508255916	0.4942476715685831	-0.0008135789938070125	
O 0.2551137040187787	0.5057523945002175	0.0008135779449956716	
O 0.5007581419724313	0.24475444511220618	0.4725859721656084	
O 0.49924185802756876	0.7552455891040213	0.5274140981656953	
O -0.0007581469168275977	0.25524555039288804	0.9725860051656083	
O 0.0007581344809216221	0.7447544838233393	0.02741395615934592	
O 0.49924185802756876	0.24475444511220618	0.02741395615934592	
O 0.5007581419724313	0.7552455891040213	0.9725860051656083	
O 0.0007581344809216221	0.25524555039288804	0.5274140981656953	
O -0.0007581469168275977	0.7447544838233393	0.4725859721656084	
O 0.7225859519343307	0.2488552976293534	0.7488507544215162	
O 0.2774139777343654	0.75114474123161	0.25114919547845777	
O 0.7774141482657214	0.2511447023706466	0.24885081426050476	
O 0.22258598816560837	0.7488553318455808	0.7511491453784317	
O 0.2774139777343654	0.2488552976293534	0.7511491453784317	
O 0.7225859519343307	0.75114474123161	0.24885081426050476	
O 0.22258598816560837	0.2511447023706466	0.25114919547845777	
O 0.7774141482657214	0.7488553318455808	0.7488507544215162	

K_POINTS automatic
6 6 6 0 0 0
