
&CONTROL
    calculation   = 'vc-relax'
    restart_mode  = 'from_scratch'
    prefix        = 'Landau_35'
    pseudo_dir    = '/cluster/scratch/mnoe/QE/pps'
    outdir        = './'
    forc_conv_thr = 1.0d-7
    etot_conv_thr = 1.0d-7

/
&SYSTEM
    ibrav       = 0
    nat         = 32
    ntyp        = 2
    ecutwfc     = 120
    occupations = 'smearing'
    degauss     = 7.35d-4
    tot_charge  = -0.0
/
&ELECTRONS
    conv_thr    = 1.0d-8
    diagonalization = 'david'
/


&IONS
ion_dynamics = 'bfgs'
/

&CELL
cell_dynamics = 'bfgs'
cell_dofree = 'all'
/
CELL_PARAMETERS angstrom
        7.3236460686         0.0000000000         0.0000000000
        0.0000000000         7.7495899200         0.0000000000
        0.0000000000         0.0000000000         7.3236460686

ATOMIC_SPECIES
W 183.84 W_ONCV_LDA-4.0.upf
O 15.9994 O_ONCV_LDA-3.0.upf

ATOMIC_POSITIONS crystal
W 0.233809991	0.2783803571029171	0.015289999	 0 0 0
W 0.7661899905034021	0.7216196428970829	0.984709968	 0 0 0
W 0.266189992	0.22161965905312025	0.515290032	 0 0 0
W 0.7338099725034021	0.7783803619400755	0.484710001	 0 0 0
W 0.7661899905034021	0.2783803571029171	0.484710001	 0 0 0
W 0.233809991	0.7216196428970829	0.515290032	 0 0 0
W 0.7338099725034021	0.22161965905312025	0.984709968	 0 0 0
W 0.266189992	0.7783803619400755	0.015289999	 0 0 0
O 0.220139993	0.007372041263727512	0.00475	 0 0 0
O 0.7798599725034021	0.9926279574594877	0.995249957	 0 0 0
O 0.279860024	0.49262796229664624	0.504750011	 0 0 0
O 0.720139990503402	0.5073720425405123	0.495249989	 0 0 0
O 0.7798599725034021	0.007372041263727512	0.495249989	 0 0 0
O 0.220139993	0.9926279574594877	0.504750011	 0 0 0
O 0.720139990503402	0.49262796229664624	0.995249957	 0 0 0
O 0.279860024	0.5073720425405123	0.00475	 0 0 0
O 0.504419991	0.219369998	0.4580484228641599	 0 0 0
O 0.495580009	0.7806300193405605	0.5419515822850732	 0 0 0
O 0.995580009	0.280630002	0.95804845586416	 0 0 0
O 0.004420042	0.7193700463405606	0.041951560766793676	 0 0 0
O 0.495580009	0.219369998	0.041951560766793676	 0 0 0
O 0.504419991	0.7806300193405605	0.95804845586416	 0 0 0
O 0.004420042	0.280630002	0.5419515822850732	 0 0 0
O 0.995580009	0.7193700463405606	0.4580484228641599	 0 0 0
O 0.7080484362115247	0.24331	0.7432900055034021	 0 0 0
O 0.2919515586392421	0.7566900483405605	0.256709993	 0 0 0
O 0.7919516007816712	0.25669	0.243289942	 0 0 0
O 0.20804843886415994	0.7433100173405606	0.7567099575034021	 0 0 0
O 0.2919515586392421	0.24331	0.7567099575034021	 0 0 0
O 0.7080484362115247	0.7566900483405605	0.243289942	 0 0 0
O 0.20804843886415994	0.25669	0.256709993	 0 0 0
O 0.7919516007816712	0.7433100173405606	0.7432900055034021	 0 0 0

K_POINTS automatic
6 6 6 0 0 0
