&CONTROL
    calculation   = 'scf'
    restart_mode  = 'from_scratch'
    prefix        = 'Landau_2'
    pseudo_dir    = '/cluster/scratch/mnoe/QE/pps'
    outdir        = './'
/
&SYSTEM
    ibrav       = 0
    nat         = 32
    ntyp        = 2
    ecutwfc     = 120
    occupations = 'smearing'
    degauss     = 7.35d-4
    tot_charge  = -0.2
/
&ELECTRONS
    conv_thr    = 1.0d-8
    diagonalization = 'david'
/

CELL_PARAMETERS angstrom
   7.340357110   0.000000000   0.000000000
   0.000000000   7.735212951   0.000000000
   0.000000000   0.000000000   7.340784617

ATOMIC_SPECIES
W 183.84 W_ONCV_LDA-4.0.upf
O 15.9994 O_ONCV_LDA-3.0.upf

ATOMIC_POSITIONS crystal
W 0.24727748829659718	0.28088085070113944	0.0008230480956049808	
W 0.7509774830398933	0.7191191492988606	-0.0026709498043950243	
W 0.2527225117034028	0.2191191646241628	0.5008230482465672	
W 0.7490225076991328	0.7808808297855092	0.49732904604656725	
W 0.7527225042991328	0.28088085070113944	0.4991769517534328	
W 0.2490225117034028	0.7191191492988606	0.5026709539534328	
W 0.7472774864398932	0.2191191646241628	-0.0008230457956049865	
W 0.2509774882965972	0.7808808297855092	0.0026709521043950185	
O 0.24631580570206432	0.008053249875619726	-0.0011615663581274562	
O 0.7531417981972283	-0.008053233706967014	-0.002247567058127452	
O 0.25368419104980355	0.4919467453774028	0.4988384293937404	
O 0.7468581910434958	0.508053233706967	0.4977524312937404	
O 0.7536841838434959	0.008053249875619726	0.501161568105354	
O 0.24685819004980356	-0.008053233706967014	0.5022475662053539	
O 0.7463158053972283	0.4919467453774028	0.0011615656581274603	
O 0.2531418067020643	0.508053233706967	0.002247566358127456	
O 0.5008890659594859	0.2461174326431178	0.45193422402609373	
O 0.4998770643594859	0.7531194245718026	0.5480657537088806	
O -0.0008890660131650808	0.2538825643568822	0.9519342570260938	
O 0.00012293388683492053	0.7468805642338122	0.048065782865443156	
O 0.4991109340405141	0.2461174326431178	0.048065782865443156	
O 0.5001229356405141	0.7531194245718026	0.9519342570260938	
O 0.0008890609594859168	0.2538825643568822	0.5480657537088806	
O -0.0001229389405140846	0.7468805642338122	0.45193422402609373	
O 0.7019342514959555	0.25098451699762936	0.7494857118341065	
O 0.2980657707690702	0.752512513324616	0.2510197125908104	
O 0.7980657589137166	0.24901548150406871	0.24948572189081042	
O 0.20193424002609378	0.7474874755310554	0.7510197090341065	
O 0.2980657707690702	0.25098451699762936	0.7505142819015235	
O 0.7019342514959555	0.752512513324616	0.24898029390918958	
O 0.20193424002609378	0.24901548150406871	0.25051428460918956	
O 0.7980657589137166	0.7474874755310554	0.7489802847015234	

K_POINTS automatic
6 6 6 0 0 0
