&CONTROL
    calculation   = 'scf'
    restart_mode  = 'from_scratch'
    prefix        = 'Landau_12'
    pseudo_dir    = '/cluster/scratch/mnoe/QE/pps'
    outdir        = './'
/
&SYSTEM
    ibrav       = 0
    nat         = 32
    ntyp        = 2
    ecutwfc     = 120
    occupations = 'smearing'
    degauss     = 7.35d-4
    tot_charge  = -0.2
/
&ELECTRONS
    conv_thr    = 1.0d-8
    diagonalization = 'david'
/

CELL_PARAMETERS angstrom
   7.364276372   0.000000000   0.000000000
   0.000000000   7.612704908   0.000000000
   0.000000000   0.000000000   7.364276372

ATOMIC_SPECIES
W 183.84 W_ONCV_LDA-4.0.upf
O 15.9994 O_ONCV_LDA-3.0.upf

ATOMIC_POSITIONS crystal
W 0.26041001	0.2793042279936066	-0.989050021	
W 0.7390500073079564	0.7206957720063935	-0.989589973	
W 0.239590006	0.2206957878621461	-0.489050004	
W 0.7609499333079565	0.779304254521941	-0.489590006	
W 0.7395899593079565	0.2793042279936066	-0.510949996	
W 0.260949996	0.7206957720063935	-0.51041001	
W 0.7604099803079565	0.2206957878621461	-1.0109499469999998	
W 0.239050004	0.779304254521941	-1.010409994	
O 0.272180028	0.007628263778920702	-0.977930004	
O 0.7279299903079565	0.9923717312502721	-0.977819955	
O 0.227819988	0.4923717577786065	-0.477929987	
O 0.7720699503079566	0.5076282687497279	-0.47781998800000003	
O 0.7278199413079565	0.007628263778920702	-0.5220699959999999	
O 0.272069996	0.9923717312502721	-0.522180028	
O 0.7721799983079565	0.4923717577786065	-1.022069964	
O 0.227929987	0.5076282687497279	-1.022180012	
O 0.495379927	0.27649	-0.5442916479576557	
O 0.503030006	0.7312500038362908	-0.45570830780250443	
O 0.004620016	0.22351	-1.0442916479576558	
O 0.996970027	0.7687500218362908	-0.9557083440034203	
O 0.504620008	0.27649	-0.9557083440034203	
O 0.496969994	0.7312500038362908	-1.0442916479576558	
O 0.995379992	0.22351	-0.45570830780250443	
O 0.003030002	0.7687500218362908	-0.5442916479576557	
O 0.705708305494548	0.231249991	-0.2530300156920435	
O 0.2942916342656122	0.7235100438362908	-0.754620008	
O 0.7942916898895391	0.268750009	-0.753030006	
O 0.2057083360423442	0.7764899818362908	-0.2546200296920435	
O 0.2942916342656122	0.231249991	-1.2469700406920436	
O 0.705708305494548	0.7235100438362908	-0.745379927	
O 0.2057083360423442	0.268750009	-0.7469699940000001	
O 0.7942916898895391	0.7764899818362908	-1.2453800056920437	

K_POINTS automatic
6 6 6 0 0 0
