&CONTROL
    calculation   = 'scf'
    restart_mode  = 'from_scratch'
    prefix        = 'Landau_19'
    pseudo_dir    = '/cluster/scratch/mnoe/QE/pps'
    outdir        = './'
/
&SYSTEM
    ibrav       = 0
    nat         = 32
    ntyp        = 2
    ecutwfc     = 120
    occupations = 'smearing'
    degauss     = 7.35d-4
    tot_charge  = -0.6
/
&ELECTRONS
    conv_thr    = 1.0d-8
    diagonalization = 'david'
/

CELL_PARAMETERS angstrom
   7.343237249   0.000000000   0.000000000
   0.000000000   7.594613652   0.000000000
   0.000000000   0.000000000   7.396258855

ATOMIC_SPECIES
W 183.84 W_ONCV_LDA-4.0.upf
O 15.9994 O_ONCV_LDA-3.0.upf

ATOMIC_POSITIONS crystal
W 0.232429994	0.2799781003856515	0.0166	
W 0.7675699799964546	0.7200218996143485	0.983399982	
W 0.267570023	0.22002191523957007	0.516600018	
W 0.7324299999964545	0.7799780887675208	0.483399982	
W 0.7675699799964546	0.2799781003856515	0.483399982	
W 0.232429994	0.7200218996143485	0.516600018	
W 0.7324299999964545	0.22002191523957007	0.983399982	
W 0.267570023	0.7799780887675208	0.0166	
O 0.217580004	0.007807313917320945	0.00516	
O 0.7824199859964546	0.9921926959530256	0.994840012	
O 0.282419996	0.492192684334895	0.505159988	
O 0.7175799939964546	0.5078073040469744	0.494840012	
O 0.7824199859964546	0.007807313917320945	0.494840012	
O 0.217580004	0.9921926959530256	0.505159988	
O 0.7175799939964546	0.492192684334895	0.994840012	
O 0.282419996	0.5078073040469744	0.00516	
O 0.504800017	0.216739997	0.45414162617019205	
O 0.495199983	0.7832600283783239	0.5458583614621205	
O 0.995199951	0.283259988	0.9541416591701921	
O 0.004800081	0.7167400213783239	0.04585837232360333	
O 0.495199983	0.216739997	0.04585837232360333	
O 0.504800017	0.7832600283783239	0.9541416591701921	
O 0.004800081	0.283259988	0.5458583614621205	
O 0.995199951	0.7167400213783239	0.45414162617019205	
O 0.704141648541425	0.24274001	0.7427099969964546	
O 0.29585836382626246	0.7572599533783239	0.25729001	
O 0.795858371465666	0.25725999	0.24270999	
O 0.20414164217019207	0.7427400353783239	0.7572899829964546	
O 0.29585836382626246	0.24274001	0.7572899829964546	
O 0.704141648541425	0.7572599533783239	0.24270999	
O 0.20414164217019207	0.25725999	0.25729001	
O 0.795858371465666	0.7427400353783239	0.7427099969964546	

K_POINTS automatic
6 6 6 0 0 0
