
&CONTROL
    calculation   = 'vc-relax'
    restart_mode  = 'from_scratch'
    prefix        = 'Landau_5'
    pseudo_dir    = '/cluster/scratch/mnoe/QE/pps'
    outdir        = './'
    forc_conv_thr = 1.0d-7
    etot_conv_thr = 1.0d-7

/
&SYSTEM
    ibrav       = 0
    nat         = 32
    ntyp        = 2
    ecutwfc     = 120
    occupations = 'smearing'
    degauss     = 7.35d-4
    tot_charge  = -0.0
/
&ELECTRONS
    conv_thr    = 1.0d-8
    diagonalization = 'david'
/


&IONS
ion_dynamics = 'bfgs'
/

&CELL
cell_dynamics = 'bfgs'
cell_dofree = 'all'
/
CELL_PARAMETERS angstrom
        7.3236460686         0.0000000000         0.0000000000
        0.0000000000         7.7495899200         0.0000000000
        0.0000000000         0.0000000000         7.3236460686

ATOMIC_SPECIES
W 183.84 W_ONCV_LDA-4.0.upf
O 15.9994 O_ONCV_LDA-3.0.upf

ATOMIC_POSITIONS crystal
W 0.252170002	0.2813433998320014	-0.997719999	 0 0 0
W 0.7477199961474909	0.7186566001679986	-0.997830047	 0 0 0
W 0.247829998	0.21865661534628045	-0.49771999899999997	 0 0 0
W 0.7522799651474908	0.7813434053587377	-0.497829998	 0 0 0
W 0.7478300441474909	0.2813433998320014	-0.5022800009999999	 0 0 0
W 0.252280001	0.7186566001679986	-0.502170002	 0 0 0
W 0.7521699821474909	0.21865661534628045	-1.0022799679999999	 0 0 0
W 0.247719999	0.7813434053587377	-1.002169985	 0 0 0
O 0.254620008	0.008183794662275147	-0.9954	 0 0 0
O 0.7453999971474908	0.9918162145938066	-0.995380009	 0 0 0
O 0.245379992	0.491816220120543	-0.4954	 0 0 0
O 0.7545999651474908	0.5081837854061934	-0.495379992	 0 0 0
O 0.7453800061474909	0.008183794662275147	-0.504599984	 0 0 0
O 0.254599984	0.9918162145938066	-0.5046200080000001	 0 0 0
O 0.7546200211474908	0.491816220120543	-1.004599968	 0 0 0
O 0.2454	0.5081837854061934	-1.0046200239999998	 0 0 0
O 0.499040008	0.255519992	-0.5492778243245116	 0 0 0
O 0.50063001	0.7460899976742272	-0.4507221537921884	 0 0 0
O 0.000959992	0.244479993	-1.0492778243245116	 0 0 0
O 0.99936999	0.7539100076742273	-0.9507221486673793	 0 0 0
O 0.500959992	0.255519992	-0.9507221486673793	 0 0 0
O 0.499370023	0.7460899976742272	-1.0492778243245116	 0 0 0
O 0.999039976	0.244479993	-0.4507221537921884	 0 0 0
O 0.000629991	0.7539100076742273	-0.5492778243245116	 0 0 0
O 0.7007221406446975	0.246089995	-0.25062999385250906	 0 0 0
O 0.29927782147200255	0.7444799956742273	-0.750959992	 0 0 0
O 0.7992778330603206	0.253910005	-0.75063001	 0 0 0
O 0.20072215967548837	0.7555200096742273	-0.2509599948525091	 0 0 0
O 0.29927782147200255	0.246089995	-1.249369992852509	 0 0 0
O 0.7007221406446975	0.7444799956742273	-0.7490400079999999	 0 0 0
O 0.20072215967548837	0.253910005	-0.749370023	 0 0 0
O 0.7992778330603206	0.7555200096742273	-1.2490399788525093	 0 0 0

K_POINTS automatic
6 6 6 0 0 0
