
&CONTROL
    calculation   = 'vc-relax'
    restart_mode  = 'from_scratch'
    prefix        = 'Landau_4'
    pseudo_dir    = '/cluster/scratch/mnoe/QE/pps'
    outdir        = './'
    forc_conv_thr = 1.0d-7
    etot_conv_thr = 1.0d-7

/
&SYSTEM
    ibrav       = 0
    nat         = 32
    ntyp        = 2
    ecutwfc     = 120
    occupations = 'smearing'
    degauss     = 7.35d-4
    tot_charge  = -0.0
/
&ELECTRONS
    conv_thr    = 1.0d-8
    diagonalization = 'david'
/


&IONS
ion_dynamics = 'bfgs'
/

&CELL
cell_dynamics = 'bfgs'
cell_dofree = 'all'
/
CELL_PARAMETERS angstrom
        7.3236460686         0.0000000000         0.0000000000
        0.0000000000         7.7495899200         0.0000000000
        0.0000000000         0.0000000000         7.3236460686

ATOMIC_SPECIES
W 183.84 W_ONCV_LDA-4.0.upf
O 15.9994 O_ONCV_LDA-3.0.upf

ATOMIC_POSITIONS crystal
W 0.2442641393587268	0.2802910816146038	0.0013381121897449557	 0 0 0
W 0.7516641314645232	0.7197089183853962	-0.0056498836102550545	 0 0 0
W 0.25573586064127324	0.2197089339066365	0.5013381122086569	 0 0 0
W 0.7483358545360821	0.7802910667730538	0.49435010780865685	 0 0 0
W 0.7557358477360822	0.2802910816146038	0.49866188779134313	 0 0 0
W 0.24833586064127322	0.7197089183853962	0.5056498921913432	 0 0 0
W 0.7442641382645232	0.2197089339066365	-0.0013381075897449671	 0 0 0
W 0.2516641393587268	0.7802910667730538	0.005649888210255043	 0 0 0
O 0.2425412137381501	0.007892579285996347	-0.002891321502297397	 0 0 0
O 0.7561932007983049	-0.007892567232043122	-0.005063322902297389	 0 0 0
O 0.2574587792162083	0.4921074179264069	0.497108669452061	 0 0 0
O 0.7438067817062626	0.5078925672320431	0.494936673252061	 0 0 0
O 0.7574587673062626	0.007892579285996347	0.5028913258124925	 0 0 0
O 0.2438067772162083	-0.007892567232043122	0.5050633220124925	 0 0 0
O 0.742541215198305	0.4921074179264069	0.002891320102297405	 0 0 0
O 0.2561932157381501	0.5078925672320431	0.005063321502297397	 0 0 0
O 0.5019058203054672	0.24210767613394152	0.4533763254840567	 0 0 0
O 0.49988181710546714	0.7561116733005653	0.5466236587168739	 0 0 0
O -0.0019058193307185214	0.2578923178660585	0.9533763584840567	 0 0 0
O 0.00011818046928148136	0.7438883314452547	0.04662367592121423	 0 0 0
O 0.49809417969453285	0.24210767613394152	0.04662367592121423	 0 0 0
O 0.5001181828945328	0.7561116733005653	0.9533763584840567	 0 0 0
O 0.001905810305467139	0.2578923178660585	0.5466236587168739	 0 0 0
O -0.00011818949453286365	0.7438883314452547	0.4533763254840567	 0 0 0
O 0.7033763496229712	0.25255187292780185	0.7490556642843541	 0 0 0
O 0.2966236661760981	0.7556078793904635	0.2521236631785576	 0 0 0
O 0.7966236670567192	0.24744812357616033	0.24905568177855764	 0 0 0
O 0.20337634148405673	0.7443921254388219	0.752123658684354	 0 0 0
O 0.2966236661760981	0.25255187292780185	0.750944328708327	 0 0 0
O 0.7033763496229712	0.7556078793904635	0.24787634982144238	 0 0 0
O 0.20337634148405673	0.24744812357616033	0.2509443312214424	 0 0 0
O 0.7966236670567192	0.7443921254388219	0.7478763343083269	 0 0 0

K_POINTS automatic
6 6 6 0 0 0
