
&CONTROL
    calculation   = 'vc-relax'
    restart_mode  = 'from_scratch'
    prefix        = 'Landau_7'
    pseudo_dir    = '/cluster/scratch/mnoe/QE/pps'
    outdir        = './'
    forc_conv_thr = 1.0d-7
    etot_conv_thr = 1.0d-7

/
&SYSTEM
    ibrav       = 0
    nat         = 32
    ntyp        = 2
    ecutwfc     = 120
    occupations = 'smearing'
    degauss     = 7.35d-4
    tot_charge  = -0.0
/
&ELECTRONS
    conv_thr    = 1.0d-8
    diagonalization = 'david'
/


&IONS
ion_dynamics = 'bfgs'
/

&CELL
cell_dynamics = 'bfgs'
cell_dofree = 'all'
/
CELL_PARAMETERS angstrom
        7.3236460686         0.0000000000         0.0000000000
        0.0000000000         7.7495899200         0.0000000000
        0.0000000000         0.0000000000         7.3236460686

ATOMIC_SPECIES
W 183.84 W_ONCV_LDA-4.0.upf
O 15.9994 O_ONCV_LDA-3.0.upf

ATOMIC_POSITIONS crystal
W 0.253040018	0.2779924117440874	-0.99681005	 0 0 0
W 0.7468100293347936	0.7220075882559126	-0.996960015	 0 0 0
W 0.246959999	0.22200760454748794	-0.496810001	 0 0 0
W 0.7531899623347935	0.7779924517829249	-0.496959999	 0 0 0
W 0.7469599943347935	0.2779924117440874	-0.503189983	 0 0 0
W 0.253189983	0.7220075882559126	-0.503040018	 0 0 0
W 0.7530399973347935	0.22200760454748794	-1.003189983	 0 0 0
W 0.246810001	0.7779924517829249	-1.003040018	 0 0 0
O 0.25646999	0.00727088612875279	-0.993560045	 0 0 0
O 0.7435600243347935	0.9927290997481637	-0.993530026	 0 0 0
O 0.24353001	0.4927291397870012	-0.493559996	 0 0 0
O 0.7564399663347936	0.5072709002518363	-0.49353000999999996	 0 0 0
O 0.7435300053347935	0.00727088612875279	-0.506439987	 0 0 0
O 0.256439987	0.9927290997481637	-0.50646999	 0 0 0
O 0.7564699203347935	0.4927291397870012	-1.006439987	 0 0 0
O 0.243559996	0.5072709002518363	-1.006469941	 0 0 0
O 0.498650086	0.257730007	-0.5410839991181352	 0 0 0
O 0.500879995	0.744529974373631	-0.4589159422598765	 0 0 0
O 0.001349986	0.242269993	-1.041083999118135	 0 0 0
O 0.999120005	0.7554700643736311	-0.958916005045976	 0 0 0
O 0.501349979	0.257730007	-0.958916005045976	 0 0 0
O 0.499120005	0.744529974373631	-1.041083999118135	 0 0 0
O 0.998649988	0.242269993	-0.4589159422598765	 0 0 0
O 0.000880003	0.7554700643736311	-0.5410839991181352	 0 0 0
O 0.708915946925083	0.244529986	-0.25088002366520645	 0 0 0
O 0.2910839784529287	0.742270027373631	-0.751349979	 0 0 0
O 0.7910840624053299	0.255470014	-0.750879995	 0 0 0
O 0.20891598488186475	0.757730011373631	-0.25135000666520646	 0 0 0
O 0.2910839784529287	0.244529986	-1.2491200256652064	 0 0 0
O 0.708915946925083	0.742270027373631	-0.748650086	 0 0 0
O 0.20891598488186475	0.255470014	-0.749120005	 0 0 0
O 0.7910840624053299	0.757730011373631	-1.2486500086652064	 0 0 0

K_POINTS automatic
6 6 6 0 0 0
