
&CONTROL
    calculation   = 'vc-relax'
    restart_mode  = 'from_scratch'
    prefix        = 'Landau_7'
    pseudo_dir    = '/cluster/scratch/mnoe/QE/pps'
    outdir        = './'
    forc_conv_thr = 1.0d-7
    etot_conv_thr = 1.0d-7

/
&SYSTEM
    ibrav       = 0
    nat         = 32
    ntyp        = 2
    ecutwfc     = 120
    occupations = 'smearing'
    degauss     = 7.35d-4
    tot_charge  = -0.0
/
&ELECTRONS
    conv_thr    = 1.0d-8
    diagonalization = 'david'
/


&IONS
ion_dynamics = 'bfgs'
/

&CELL
cell_dynamics = 'bfgs'
cell_dofree = 'all'
/
CELL_PARAMETERS angstrom
        7.3236460686         0.0000000000         0.0000000000
        0.0000000000         7.7495899200         0.0000000000
        0.0000000000         0.0000000000         7.3236460686

ATOMIC_SPECIES
W 183.84 W_ONCV_LDA-4.0.upf
O 15.9994 O_ONCV_LDA-3.0.upf

ATOMIC_POSITIONS crystal
W 0.2563	0.28423720048	0.25017996800000003	 0 0 0
W -0.25017996900000006	0.71576279952	-0.7437000330000001	 0 0 0
W 0.24370001700000005	0.21576281137	0.7501799849999999	 0 0 0
W 0.7501799680000001	0.78423716948	0.7562999829999999	 0 0 0
W 0.743700032	0.28423720048	0.749819998	 0 0 0
W 0.250180002	0.71576279952	0.7437	 0 0 0
W -0.24370003299999998	0.21576281137	-0.7501799690000002	 0 0 0
W 0.249820015	0.78423716948	0.24370003199999996	 0 0 0
O 0.25692001100000006	0.01281820021	0.25501998000000003	 0 0 0
O -0.2550199970000001	0.98718182846	-0.7430800370000001	 0 0 0
O 0.24308002099999998	0.48718179095	0.755020013	 0 0 0
O 0.75501998	0.51281818456	0.7569200110000001	 0 0 0
O 0.74308002	0.01281820021	0.744980019	 0 0 0
O 0.255020013	0.98718182846	0.7430800209999999	 0 0 0
O -0.24308003700000003	0.48718179095	-0.7550199970000002	 0 0 0
O 0.24498001900000005	0.51281818456	0.24308001999999995	 0 0 0
O 0.49778000999999983	0.25747000000000003	0.7118271124	 0 0 0
O 0.4995399839999999	0.7452099979999999	0.78817286825	 0 0 0
O -0.9977801079999999	0.24253001600000001	1.21182713532	 0 0 0
O 0.00045990200000003013	0.754789912	0.28817291284	 0 0 0
O 0.5022199900000001	0.25747000000000003	0.28817291284	 0 0 0
O 0.500460016	0.7452099979999999	1.21182713532	 0 0 0
O -0.002219973000000079	0.24253001600000001	0.78817286825	 0 0 0
O -1.000459983	0.754789912	0.7118271124	 0 0 0
O 0.7118271523299999	0.24521002800000002	2.000460016	 0 0 0
O 0.28817289768	0.742529955	0.4977800429999999	 0 0 0
O 0.78817286132	0.25478998799999997	0.500459918	 0 0 0
O 0.21182712860999994	0.7574699549999999	1.9977800099999998	 0 0 0
O 0.28817289768	0.24521002800000002	0.9995399999999999	 0 0 0
O 0.71182715233	0.742529955	0.5022198920000001	 0 0 0
O 0.21182712861	0.25478998799999997	0.49954001699999995	 0 0 0
O 0.78817286132	0.7574699549999999	1.0022200060000002	 0 0 0

K_POINTS automatic
6 6 6 0 0 0
