&CONTROL
    calculation   = 'scf'
    restart_mode  = 'from_scratch'
    prefix        = 'Landau_5'
    pseudo_dir    = '/cluster/scratch/mnoe/QE/pps'
    outdir        = './'
/
&SYSTEM
    ibrav       = 0
    nat         = 32
    ntyp        = 2
    ecutwfc     = 120
    occupations = 'smearing'
    degauss     = 7.35d-4
    tot_charge  = -0.6
/
&ELECTRONS
    conv_thr    = 1.0d-8
    diagonalization = 'david'
/

CELL_PARAMETERS angstrom
   7.387382778   0.000000000   0.000000000
   0.000000000   7.701810059   0.000000000
   0.000000000   0.000000000   7.387583476

ATOMIC_SPECIES
W 183.84 W_ONCV_LDA-4.0.upf
O 15.9994 O_ONCV_LDA-3.0.upf

ATOMIC_POSITIONS crystal
W 0.24884505893320902	0.2779329215874576	0.0010906390049610442	
W 0.7511549191304829	0.7220670784125425	-0.00109063756908837	
W 0.251154941066791	0.22206709471723057	0.5010906396292535	
W 0.7488450391194954	0.7779329310327912	0.4989093603707465	
W 0.7511549191304829	0.2779329215874576	0.4989093603707465	
W 0.24884505893320902	0.7220670784125425	0.5010906396292535	
W 0.7488450391194954	0.22206709471723057	-0.00109063756908837	
W 0.251154941066791	0.7779329310327912	0.0010906390049610442	
O 0.2478692889933076	0.007250146559972167	0.00033899081041486315	
O 0.7521306870726484	-0.007250150958423922	-0.0003389912474195886	
O 0.25213071000782444	0.49274985848690966	0.5003389891872544	
O 0.7478692711773298	0.507250150958424	0.4996610087525804	
O 0.7521306870726484	0.007250146559972167	0.4996610087525804	
O 0.2478692889933076	-0.007250150958423922	0.5003389891872544	
O 0.7478692711773298	0.49274985848690966	-0.0003389912474195886	
O 0.25213071000782444	0.507250150958424	0.00033899081041486315	
O 0.500315892488513	0.2478143521300859	0.45914249073567015	
O 0.499684107511487	0.7521856533766755	0.5408575193190397	
O -0.00031589454867816567	0.2521856459970367	0.9591425237356701	
O 0.0003158893670506759	0.7478143595097247	0.040857488733060804	
O 0.499684107511487	0.2478143521300859	0.040857488733060804	
O 0.500315892488513	0.7521856533766755	0.9591425237356701	
O 0.0003158893670506759	0.2521856459970367	0.5408575193190397	
O -0.00031589454867816567	0.7478143595097247	0.45914249073567015	
O 0.7091425015559711	0.24952304067889725	0.7495211476756317	
O 0.2908574883893189	0.7504769667631708	0.2504788314493574	
O 0.7908575401940505	0.25047695932110275	0.24952117260854365	
O 0.20914250673567017	0.7495230461856587	0.7504788105743465	
O 0.2908574883893189	0.24952304067889725	0.7504788105743465	
O 0.7091425015559711	0.7504769667631708	0.24952117260854365	
O 0.20914250673567017	0.25047695932110275	0.2504788314493574	
O 0.7908575401940505	0.7495230461856587	0.7495211476756317	

K_POINTS automatic
6 6 6 0 0 0
