
&CONTROL
    calculation   = 'vc-relax'
    restart_mode  = 'from_scratch'
    prefix        = 'Landau_27'
    pseudo_dir    = '/cluster/scratch/mnoe/QE/pps'
    outdir        = './'
    forc_conv_thr = 1.0d-7
    etot_conv_thr = 1.0d-7

/
&SYSTEM
    ibrav       = 0
    nat         = 32
    ntyp        = 2
    ecutwfc     = 120
    occupations = 'smearing'
    degauss     = 7.35d-4
    tot_charge  = -0.0
/
&ELECTRONS
    conv_thr    = 1.0d-8
    diagonalization = 'david'
/


&IONS
ion_dynamics = 'bfgs'
/

&CELL
cell_dynamics = 'bfgs'
cell_dofree = 'all'
/
CELL_PARAMETERS angstrom
        7.3236460686         0.0000000000         0.0000000000
        0.0000000000         7.7495899200         0.0000000000
        0.0000000000         0.0000000000         7.3236460686

ATOMIC_SPECIES
W 183.84 W_ONCV_LDA-4.0.upf
O 15.9994 O_ONCV_LDA-3.0.upf

ATOMIC_POSITIONS crystal
W 0.261709996	0.2789822534928074	-0.987680018	 0 0 0
W 0.7376800025964511	0.7210177465071925	-0.988290037	 0 0 0
W 0.238290004	0.22101776246991436	-0.487680001	 0 0 0
W 0.762319934596451	0.7789822833371836	-0.488290004	 0 0 0
W 0.738290021596451	0.2789822534928074	-0.512319982	 0 0 0
W 0.262319982	0.7210177465071925	-0.511709996	 0 0 0
W 0.761709980596451	0.22101776246991436	-1.01231995	 0 0 0
W 0.237680001	0.7789822833371836	-1.011709996	 0 0 0
O 0.274950005	0.00754054837628579	-0.975180035	 0 0 0
O 0.725180019596451	0.9924594444065562	-0.975049995	 0 0 0
O 0.225049995	0.4924594742509323	-0.475180002	 0 0 0
O 0.774819982596451	0.5075405555934438	-0.475049995	 0 0 0
O 0.725049979596451	0.00754054837628579	-0.524819998	 0 0 0
O 0.274819998	0.9924594444065562	-0.524950005	 0 0 0
O 0.774950021596451	0.4924594742509323	-1.024819998	 0 0 0
O 0.225180002	0.5075405555934438	-1.024950037	 0 0 0
O 0.49479996	0.279799992	-0.5435043569523627	 0 0 0
O 0.503409998	0.7289100074408272	-0.45649559527781747	 0 0 0
O 0.005200028	0.220200008	-1.0435043569523628	 0 0 0
O 0.996590002	0.7710900214408272	-0.956495638003848	 0 0 0
O 0.50520004	0.279799992	-0.956495638003848	 0 0 0
O 0.496590002	0.7289100074408272	-1.0435043569523628	 0 0 0
O 0.994799993	0.220200008	-0.45649559527781747	 0 0 0
O 0.003410012	0.7710900214408272	-0.5435043569523627	 0 0 0
O 0.7064955946813665	0.228909993	-0.25341002740354895	 0 0 0
O 0.2935043415488138	0.7202000224408271	-0.75520004	 0 0 0
O 0.7935044041257315	0.271090007	-0.753409998	 0 0 0
O 0.20649562704763721	0.7798000064408273	-0.25520004340354896	 0 0 0
O 0.2935043415488138	0.228909993	-1.246590017403549	 0 0 0
O 0.7064955946813665	0.7202000224408271	-0.7447999599999999	 0 0 0
O 0.20649562704763721	0.271090007	-0.746590002	 0 0 0
O 0.7935044041257315	0.7798000064408273	-1.2448000084035489	 0 0 0

K_POINTS automatic
6 6 6 0 0 0
