&CONTROL
    calculation   = 'scf'
    restart_mode  = 'from_scratch'
    prefix        = 'Landau_1'
    pseudo_dir    = '/cluster/scratch/mnoe/QE/pps'
    outdir        = './'
/
&SYSTEM
    ibrav       = 0
    nat         = 32
    ntyp        = 2
    ecutwfc     = 120
    occupations = 'smearing'
    degauss     = 7.35d-4
    tot_charge  = -0.6
/
&ELECTRONS
    conv_thr    = 1.0d-8
    diagonalization = 'david'
/

CELL_PARAMETERS angstrom
   7.326937772   0.000000000   0.000000000
   0.000000000   7.746457299   0.000000000
   0.000000000   0.000000000   7.327084183

ATOMIC_SPECIES
W 183.84 W_ONCV_LDA-4.0.upf
O 15.9994 O_ONCV_LDA-3.0.upf

ATOMIC_POSITIONS crystal
W 0.249080001	0.2816611660915953	0.00087	
W 0.7509199649430516	0.7183388339084047	0.99913004	
W 0.250919999	0.218338848974464	0.500869993	
W 0.7490800329430516	0.7816611371394329	0.499130007	
W 0.7509199649430516	0.2816611660915953	0.499130007	
W 0.249080001	0.7183388339084047	0.500869993	
W 0.7490800329430516	0.218338848974464	0.99913004	
W 0.250919999	0.7816611371394329	0.00087	
O 0.248289999	0.008265830929355858	0.00027	
O 0.7517099679430516	0.9917341906833993	0.999729981	
O 0.251710001	0.49173416173123696	0.500270019	
O 0.7482900299430516	0.5082658093166007	0.499729981	
O 0.7517099679430516	0.008265830929355858	0.499729981	
O 0.248289999	0.9917341906833993	0.500270019	
O 0.7482900299430516	0.49173416173123696	0.999729981	
O 0.251710001	0.5082658093166007	0.00027	
O 0.500249997	0.248249988	0.4500261993636663	
O 0.499750003	0.7517499659908892	0.5499737698162899	
O 0.999750035	0.251749996	0.9500262323636662	
O 0.000249982	0.7482500049908891	0.049973814786673926	
O 0.499750003	0.248249988	0.049973814786673926	
O 0.500249997	0.7517499659908892	0.9500262323636662	
O 0.000249982	0.251749996	0.5499737698162899	
O 0.999750035	0.7482500049908891	0.4500261993636663	
O 0.7000262312406585	0.249620007	0.7496200059430516	
O 0.29997379957938525	0.7503800099908892	0.250379977	
O 0.7999737708732384	0.250379978	0.249619958	
O 0.2000262153636663	0.7496200229908891	0.7503799919430516	
O 0.29997379957938525	0.249620007	0.7503799919430516	
O 0.7000262312406585	0.7503800099908892	0.249619958	
O 0.2000262153636663	0.250379978	0.250379977	
O 0.7999737708732384	0.7496200229908891	0.7496200059430516	

K_POINTS automatic
6 6 6 0 0 0
