
&CONTROL
    calculation   = 'vc-relax'
    restart_mode  = 'from_scratch'
    prefix        = 'Landau_10'
    pseudo_dir    = '/cluster/scratch/mnoe/QE/pps'
    outdir        = './'
    forc_conv_thr = 1.0d-7
    etot_conv_thr = 1.0d-7

/
&SYSTEM
    ibrav       = 0
    nat         = 32
    ntyp        = 2
    ecutwfc     = 120
    occupations = 'smearing'
    degauss     = 7.35d-4
    tot_charge  = -0.0
/
&ELECTRONS
    conv_thr    = 1.0d-8
    diagonalization = 'david'
/


&IONS
ion_dynamics = 'bfgs'
/

&CELL
cell_dynamics = 'bfgs'
cell_dofree = 'all'
/
CELL_PARAMETERS angstrom
        7.3236460686         0.0000000000         0.0000000000
        0.0000000000         7.3236460686         0.0000000000
        0.0000000000         0.0000000000         7.7495899200

ATOMIC_SPECIES
W 183.84 W_ONCV_LDA-4.0.upf
O 15.9994 O_ONCV_LDA-3.0.upf

ATOMIC_POSITIONS crystal
W 0.245660013         0.245440014         0.218119991 0 0 0
W 0.754340020         0.754559986         0.218119991 0 0 0
W 0.245440014         0.754340020         0.781880024 0 0 0
W 0.754559986         0.245660013         0.781880024 0 0 0
W 0.254339987         0.745439982         0.281880024 0 0 0
W 0.745660013         0.254559986         0.281880024 0 0 0
W 0.254559986         0.254339987         0.718119976 0 0 0
W 0.745439982         0.745660013         0.718119976 0 0 0
O 0.240760001         0.240810011         0.491670026 0 0 0
O 0.759240032         0.759189956         0.491670026 0 0 0
O 0.240810011         0.759240032         0.508329974 0 0 0
O 0.759189956         0.240760001         0.508329974 0 0 0
O 0.259239999         0.740810011         0.008329987 0 0 0
O 0.740760001         0.259189989         0.008329987 0 0 0
O 0.259189989         0.259239999         0.991670026 0 0 0
O 0.740810011         0.740760001         0.991670026 0 0 0
O 0.199410008         0.498739980         0.257809996 0 0 0
O 0.800589976         0.501260052         0.257809996 0 0 0
O 0.498739980         0.800589976         0.742190019 0 0 0
O 0.501260052         0.199410008         0.742190019 0 0 0
O 0.300589976         0.998739980         0.242190004 0 0 0
O 0.699409992         0.001260012         0.242190004 0 0 0
O 0.001260012         0.300589976         0.757809981 0 0 0
O 0.998739980         0.699409992         0.757809981 0 0 0
O 0.998069988         0.199410008         0.238960000 0 0 0
O 0.001929998         0.800589976         0.238960000 0 0 0
O 0.199410008         0.001929998         0.761039953 0 0 0
O 0.800589976         0.998069988         0.761039953 0 0 0
O 0.501930012         0.699409992         0.261040015 0 0 0
O 0.498069988         0.300589976         0.261040015 0 0 0
O 0.300589976         0.501930012         0.738960047 0 0 0
O 0.699409992         0.498069988         0.738960047 0 0 0

K_POINTS automatic
6 6 6 0 0 0
