&CONTROL
    calculation   = 'scf'
    restart_mode  = 'from_scratch'
    prefix        = 'chempot_6'
    pseudo_dir    = '/cluster/scratch/mnoe/QE/pps'
    outdir        = './'
/
&SYSTEM
    ibrav       = 0
    nat         = 32 
    ntyp        = 2
    ecutwfc     = 120
    occupations = 'smearing'
    degauss     = 7.35d-4
    tot_charge  = -.60
/
&ELECTRONS
    conv_thr    = 1.0d-8
    diagonalization = 'david'
/
CELL_PARAMETERS angstrom
   7.452942206   0.000000000   0.000000000
   0.000000000   7.569675354   0.000000000
   0.000000000   0.000000000   7.435524827


ATOMIC_SPECIES
W 183.84 W_ONCV_LDA-4.0.upf
O 15.9994 O_ONCV_LDA-3.0.upf

ATOMIC_POSITIONS crystal
W 0.236589993	0.29170839256000003	0.01267	
W 0.763409991	0.70829160744	0.987330006	
W 0.263410007	0.20829160939	0.512669994	
W 0.736590009	0.79170836156	0.487330006	
W 0.763409991	0.29170839256000003	0.487330006	
W 0.236589993	0.70829160744	0.512669994	
W 0.736590009	0.20829160939	0.987330006	
W 0.263410007	0.79170836156	0.01267	
O 0.225260002	0.02695540087	0.00394	
O 0.774739982	0.9730446456199999	0.996060014	
O 0.274739982	0.47304458765	0.503939986	
O 0.725260018	0.5269554083200001	0.496060014	
O 0.774739982	0.02695540087	0.496060014	
O 0.225260002	0.9730446456199999	0.503939986	
O 0.725260018	0.47304458765	0.996060014	
O 0.274739982	0.5269554083200001	0.00394	
O 0.503669967	0.224620002	0.5004437388	
O 0.496330033	0.775379998	0.49955628474999997	
O 0.996330033	0.275380029	1.00044373004	
O 0.003669977	0.724619971	-0.0004436845199999942	
O 0.496330033	0.224620002	-0.0004436845199999942	
O 0.503669967	0.775379998	1.00044373004	
O 0.003669977	0.275380029	0.49955628474999997	
O 0.996330033	0.724619971	0.5004437388	
O 0.75044380051	0.244459994	0.74444003	
O 0.24955630296000003	0.755539991	0.255559986	
O 0.74955625604	0.255540006	0.244440079	
O 0.25044375567	0.744459979	0.75555997	
O 0.24955630296000003	0.244459994	0.75555997	
O 0.75044380051	0.755539991	0.244440079	
O 0.25044375567	0.255540006	0.255559986	
O 0.74955625604	0.744459979	0.74444003	

K_POINTS automatic
6 6 6 0 0 0
