
&CONTROL
    calculation   = 'vc-relax'
    restart_mode  = 'from_scratch'
    prefix        = 'Landau_19'
    pseudo_dir    = '/cluster/scratch/mnoe/QE/pps'
    outdir        = './'
    forc_conv_thr = 1.0d-7
    etot_conv_thr = 1.0d-7

/
&SYSTEM
    ibrav       = 0
    nat         = 32
    ntyp        = 2
    ecutwfc     = 120
    occupations = 'smearing'
    degauss     = 7.35d-4
    tot_charge  = -0.0
/
&ELECTRONS
    conv_thr    = 1.0d-8
    diagonalization = 'david'
/


&IONS
ion_dynamics = 'bfgs'
/

&CELL
cell_dynamics = 'bfgs'
cell_dofree = 'all'
/
CELL_PARAMETERS angstrom
        7.3236460686         0.0000000000         0.0000000000
        0.0000000000         7.7495899200         0.0000000000
        0.0000000000         0.0000000000         7.3236460686

ATOMIC_SPECIES
W 183.84 W_ONCV_LDA-4.0.upf
O 15.9994 O_ONCV_LDA-3.0.upf

ATOMIC_POSITIONS crystal
W 0.21999170822650996	0.27809831062114676	0.003430184887370978	 0 0 0
W 0.7551416955665328	0.7219016893788532	-0.029762795162629068	 0 0 0
W 0.28000829177349007	0.2219017056285944	0.5034301822885829	 0 0 0
W 0.7448582808106962	0.7780983183631252	0.4702371613885829	 0 0 0
W 0.7800082485106962	0.27809831062114676	0.49656981771141706	 0 0 0
W 0.24485829177349006	0.7219016893788532	0.529762838611417	 0 0 0
W 0.7199917278665328	0.2219017056285944	-0.0034301630373710264	 0 0 0
W 0.25514170822650994	0.7780983183631252	0.02976281701262902	 0 0 0
O 0.21371198742941666	0.007295203437598939	-0.01913157060331625	 0 0 0
O 0.7785589455835569	-0.007295206682164898	-0.029448577253316212	 0 0 0
O 0.2862879738847007	0.49270480105981346	0.48086838121080105	 0 0 0
O 0.7214410094428696	0.5072952066821649	0.4705513992608011	 0 0 0
O 0.7862879410428697	0.007295203437598939	0.5191315988262936	 0 0 0
O 0.22144096438470068	-0.007295206682164898	0.5294485807762935	 0 0 0
O 0.7137120139835569	0.49270480105981346	0.01913156395331629	 0 0 0
O 0.27855899692941666	0.5072952066821649	0.02944857060331625	 0 0 0
O 0.5102656861226743	0.21130316468942864	0.4587380820067974	 0 0 0
O 0.5006516709226743	0.7778221914609484	0.5412619262346634	 0 0 0
O -0.010265671212602396	0.2886968068105713	0.9587381150067974	 0 0 0
O -0.0006516721626023828	0.7221779164445871	0.041261899000447945	 0 0 0
O 0.4897343138773257	0.21130316468942864	0.041261899000447945	 0 0 0
O 0.4993483290773256	0.7778221914609484	0.9587381150067974	 0 0 0
O 0.010265638622674315	0.2886968068105713	0.5412619262346634	 0 0 0
O 0.0006516395726743011	0.7221779164445871	0.4587380820067974	 0 0 0
O 0.7087380937611965	0.26765836626621825	0.7463146911590713	 0 0 0
O 0.29126189799734276	0.7821744419385406	0.2608876610690484	 0 0 0
O 0.7912619462305231	0.23234161238297926	0.2463147494190484	 0 0 0
O 0.2087380980067974	0.7178256662053015	0.7608876645590713	 0 0 0
O 0.29126189799734276	0.26765836626621825	0.7536853279197625	 0 0 0
O 0.7087380937611965	0.7821744419385406	0.23911240068095163	 0 0 0
O 0.2087380980067974	0.23234161238297926	0.25368531233095165	 0 0 0
O 0.7912619462305231	0.7178256662053015	0.7391123545197625	 0 0 0

K_POINTS automatic
6 6 6 0 0 0
