&CONTROL
    calculation   = 'scf'
    restart_mode  = 'from_scratch'
    prefix        = 'Landau_15'
    pseudo_dir    = '/cluster/scratch/mnoe/QE/pps'
    outdir        = './'
/
&SYSTEM
    ibrav       = 0
    nat         = 32
    ntyp        = 2
    ecutwfc     = 120
    occupations = 'smearing'
    degauss     = 7.35d-4
    tot_charge  = -0.1
/
&ELECTRONS
    conv_thr    = 1.0d-8
    diagonalization = 'david'
/

CELL_PARAMETERS angstrom
   7.413566981   0.000000000   0.000000000
   0.000000000   7.664380033   0.000000000
   0.000000000   0.000000000   7.415293882

ATOMIC_SPECIES
W 183.84 W_ONCV_LDA-4.0.upf
O 15.9994 O_ONCV_LDA-3.0.upf

ATOMIC_POSITIONS crystal
W        0.243059999	0.2869539976	0.00655	
W        0.756940017	0.7130460023999999	0.993450003	
W        0.256940001	0.21304601065	0.506550029	
W        0.743059983	0.7869539666	0.493449971	
W       0.756940017	0.2869539976	0.493449971	
W       0.243059999	0.7130460023999999	0.506550029	
W       0.743059983	0.21304601065	0.993450003	
W       0.256940001	0.7869539666	0.00655	
O        0.23720001	0.01795900045	0.00204	
O        0.762799957	0.9820410347	0.997959979	
O        0.262799974	0.48204098975000004	0.502040021	
O        0.737200043	0.5179589932	0.497960012	
O        0.762799957	0.01795900045	0.497960012	
O        0.23720001	0.9820410347	0.502040021	
O        0.737200043	0.48204098975000004	0.997959979	
O        0.262799974	0.5179589932	0.00204	
O    0.50190003	0.236870006	0.475869522	
O    0.49809997	0.763130009	0.5241304742499999	
O    0.99809997	0.263130009	0.9758695334	
O    0.001899958	0.736870022	0.024130513799999996	
O   0.49809997	0.236870006	0.024130513799999996	
O   0.50190003	0.763130009	0.9758695334	
O   0.001899958	0.263130009	0.5241304742499999	
O   0.99809997	0.736870022	0.475869522	
O   0.72586956985	0.247130007	0.747120036	
O   0.2741304996	0.752869978	0.252879981	
O   0.7741304594	0.252869993	0.247120019	
O   0.22586953845000002	0.747130053	0.752879964	
O   0.2741304996	0.247130007	0.752879964	
O   0.72586956985	0.752869978	0.247120019	
O   0.22586953845000002	0.252869993	0.252879981	
O   0.7741304594	0.747130053	0.747120036	

K_POINTS automatic
6 6 6 0 0 0
