
&CONTROL
    calculation   = 'vc-relax'
    restart_mode  = 'from_scratch'
    prefix        = 'Landau_4'
    pseudo_dir    = '/cluster/scratch/mnoe/QE/pps'
    outdir        = './'
    forc_conv_thr = 1.0d-7
    etot_conv_thr = 1.0d-7

/
&SYSTEM
    ibrav       = 0
    nat         = 32
    ntyp        = 2
    ecutwfc     = 120
    occupations = 'smearing'
    degauss     = 7.35d-4
    tot_charge  = -0.0
/
&ELECTRONS
    conv_thr    = 1.0d-8
    diagonalization = 'david'
/


&IONS
ion_dynamics = 'bfgs'
/

&CELL
cell_dynamics = 'bfgs'
cell_dofree = 'all'
/
CELL_PARAMETERS angstrom
        7.3236460686         0.0000000000         0.0000000000
        0.0000000000         7.7495899200         0.0000000000
        0.0000000000         0.0000000000         7.3236460686

ATOMIC_SPECIES
W 183.84 W_ONCV_LDA-4.0.upf
O 15.9994 O_ONCV_LDA-3.0.upf

ATOMIC_POSITIONS crystal
W 0.248150008	0.2808695279398166	0.00175	 0 0 0
W 0.751850018734976	0.7191304720601834	0.998249987	 0 0 0
W 0.251850008	0.2191304873892474	0.50174998	 0 0 0
W 0.748149970734976	0.7808695071408005	0.49825002	 0 0 0
W 0.751850018734976	0.2808695279398166	0.49825002	 0 0 0
W 0.248150008	0.7191304720601834	0.50174998	 0 0 0
W 0.748149970734976	0.2191304873892474	0.998249987	 0 0 0
W 0.251850008	0.7808695071408005	0.00175	 0 0 0
O 0.246590008	0.008050165219642602	0.00054	 0 0 0
O 0.753409969734976	0.9919498508700135	0.999459962	 0 0 0
O 0.253409975	0.49194983007099735	0.500540006	 0 0 0
O 0.7465900197349761	0.5080501491299865	0.499460027	 0 0 0
O 0.753409969734976	0.008050165219642602	0.499460027	 0 0 0
O 0.246590008	0.9919498508700135	0.500540006	 0 0 0
O 0.7465900197349761	0.49194983007099735	0.999459962	 0 0 0
O 0.253409975	0.5080501491299865	0.00054	 0 0 0
O 0.500509989	0.246500008	0.4519619104053642	 0 0 0
O 0.499490011	0.75350001293596	0.5480380674537476	 0 0 0
O 0.999490044	0.253499992	0.9519619434053642	 0 0 0
O 0.000509977	0.7465000279359599	0.04803809638084386	 0 0 0
O 0.499490011	0.246500008	0.04803809638084386	 0 0 0
O 0.500509989	0.75350001293596	0.9519619434053642	 0 0 0
O 0.000509977	0.253499992	0.5480380674537476	 0 0 0
O 0.999490044	0.7465000279359599	0.4519619104053642	 0 0 0
O 0.7019619378112764	0.249239998	0.7492300467349761	 0 0 0
O 0.2980380843296118	0.75076003793596	0.250769981	 0 0 0
O 0.7980380727187716	0.250760017	0.249230019	 0 0 0
O 0.20196192640536426	0.7492400029359599	0.750769942734976	 0 0 0
O 0.2980380843296118	0.249239998	0.750769942734976	 0 0 0
O 0.7019619378112764	0.75076003793596	0.249230019	 0 0 0
O 0.20196192640536426	0.250760017	0.250769981	 0 0 0
O 0.7980380727187716	0.7492400029359599	0.7492300467349761	 0 0 0

K_POINTS automatic
6 6 6 0 0 0
