&CONTROL
    calculation   = 'scf'
    restart_mode  = 'from_scratch'
    prefix        = 'Landau_36'
    pseudo_dir    = '/cluster/scratch/mnoe/QE/pps'
    outdir        = './'
/
&SYSTEM
    ibrav       = 0
    nat         = 32
    ntyp        = 2
    ecutwfc     = 120
    occupations = 'smearing'
    degauss     = 7.35d-4
    tot_charge  = -0.52
/
&ELECTRONS
    conv_thr    = 1.0d-8
    diagonalization = 'david'
/

CELL_PARAMETERS angstrom
   7.462277763   0.000000000   0.000000000
   0.000000000   7.519874298   0.000000000
   0.000000000   0.000000000   7.417768089

ATOMIC_SPECIES
W 183.84 W_ONCV_LDA-4.0.upf
O 15.9994 O_ONCV_LDA-3.0.upf

ATOMIC_POSITIONS crystal
W        0.233349992	0.29408559004	0.01572	
W        0.766650024	0.70591440996	0.984279969	
W        0.266650024	0.20591440876	0.515719998	
W        0.733349976	0.79408555904	0.484280002	
W       0.766650024	0.29408559004	0.484280002	
W       0.233349992	0.70591440996	0.515719998	
W       0.733349976	0.20591440876	0.984279969	
W       0.266650024	0.79408555904	0.01572	
O        0.219290006	0.03145360108	0.00489	
O        0.780709962	0.9685464510799999	0.995109966	
O        0.280709994	0.46854638660000003	0.504890034	
O        0.719290038	0.5314536158800001	0.495109999	
O        0.780709962	0.03145360108	0.495109999	
O        0.219290006	0.9685464510799999	0.504890034	
O        0.719290038	0.46854638660000003	0.995109966	
O        0.280709994	0.5314536158800001	0.00489	
O    0.504549987	0.218490008	0.5127308472000001	
O    0.495450013	0.781509976	0.48726918999999996	
O    0.995450046	0.281510007	1.01273082836	
O    0.00454998	0.718489993	-0.012730783679999996	
O   0.495450013	0.218490008	-0.012730783679999996	
O   0.504549987	0.781509976	1.01273082836	
O   0.00454998	0.281510007	0.48726918999999996	
O   0.995450046	0.718489993	0.5127308472000001	
O   0.76273091584	0.243120003	0.743099962	
O   0.23726920464000004	0.756879981	0.256900006	
O   0.73726915436	0.256879981	0.243099929	
O   0.26273086428	0.743119988	0.756900038	
O   0.23726920464000004	0.243120003	0.756900038	
O   0.76273091584	0.756879981	0.243099929	
O   0.26273086428	0.256879981	0.256900006	
O   0.73726915436	0.743119988	0.743099962	

K_POINTS automatic
6 6 6 0 0 0
