
&CONTROL
    calculation   = 'vc-relax'
    restart_mode  = 'from_scratch'
    prefix        = 'Landau_17'
    pseudo_dir    = '/cluster/scratch/mnoe/QE/pps'
    outdir        = './'
    forc_conv_thr = 1.0d-7
    etot_conv_thr = 1.0d-7

/
&SYSTEM
    ibrav       = 0
    nat         = 32
    ntyp        = 2
    ecutwfc     = 120
    occupations = 'smearing'
    degauss     = 7.35d-4
    tot_charge  = -0.0
/
&ELECTRONS
    conv_thr    = 1.0d-8
    diagonalization = 'david'
/


&IONS
ion_dynamics = 'bfgs'
/

&CELL
cell_dynamics = 'bfgs'
cell_dofree = 'all'
/
CELL_PARAMETERS angstrom
        7.3236460686         0.0000000000         0.0000000000
        0.0000000000         7.7495899200         0.0000000000
        0.0000000000         0.0000000000         7.3236460686

ATOMIC_SPECIES
W 183.84 W_ONCV_LDA-4.0.upf
O 15.9994 O_ONCV_LDA-3.0.upf

ATOMIC_POSITIONS crystal
W 0.25	0.27949026056022924	0.0	 0 0 0
W 0.7499999874032662	0.7205097394397707	0.0	 0 0 0
W 0.25	0.2205097552270666	0.5	 0 0 0
W 0.7499999874032662	0.779490253966401	0.5	 0 0 0
W 0.7499999874032662	0.27949026056022924	0.5	 0 0 0
W 0.25	0.7205097394397707	0.5	 0 0 0
W 0.7499999874032662	0.2205097552270666	0.0	 0 0 0
W 0.25	0.779490253966401	0.0	 0 0 0
O 0.25	0.007674411881283786	0.0	 0 0 0
O 0.7499999874032662	0.9923255945855031	0.0	 0 0 0
O 0.25	0.49232558799167486	0.5	 0 0 0
O 0.7499999874032662	0.5076744054144969	0.5	 0 0 0
O 0.7499999874032662	0.007674411881283786	0.5	 0 0 0
O 0.25	0.9923255945855031	0.5	 0 0 0
O 0.7499999874032662	0.49232558799167486	0.0	 0 0 0
O 0.25	0.5076744054144969	0.0	 0 0 0
O 0.5	0.25	0.45533449052940483	 0 0 0
O 0.5	0.749999996809438	0.5446655024513586	 0 0 0
O 0.0	0.25	0.9553345235294048	 0 0 0
O 0.0	0.749999996809438	0.044665503426311	 0 0 0
O 0.5	0.25	0.044665503426311	 0 0 0
O 0.5	0.749999996809438	0.9553345235294048	 0 0 0
O 0.0	0.25	0.5446655024513586	 0 0 0
O 0.0	0.749999996809438	0.45533449052940483	 0 0 0
O 0.7053345101453752	0.25	0.7499999874032662	 0 0 0
O 0.29466549687386134	0.749999996809438	0.25	 0 0 0
O 0.7946655150480925	0.25	0.25	 0 0 0
O 0.20533450652940483	0.749999996809438	0.7499999874032662	 0 0 0
O 0.29466549687386134	0.25	0.7499999874032662	 0 0 0
O 0.7053345101453752	0.749999996809438	0.25	 0 0 0
O 0.20533450652940483	0.25	0.25	 0 0 0
O 0.7946655150480925	0.749999996809438	0.7499999874032662	 0 0 0

K_POINTS automatic
6 6 6 0 0 0
