&CONTROL
    calculation   = 'scf'
    restart_mode  = 'from_scratch'
    prefix        = 'Landau_5'
    pseudo_dir    = '/cluster/scratch/mnoe/QE/pps'
    outdir        = './'
/
&SYSTEM
    ibrav       = 0
    nat         = 32
    ntyp        = 2
    ecutwfc     = 120
    occupations = 'smearing'
    degauss     = 7.35d-4
    tot_charge  = -0.2
/
&ELECTRONS
    conv_thr    = 1.0d-8
    diagonalization = 'david'
/

CELL_PARAMETERS angstrom
   7.343765815   0.000000000   0.000000000
   0.000000000   7.717673546   0.000000000
   0.000000000   0.000000000   7.343765815

ATOMIC_SPECIES
W 183.84 W_ONCV_LDA-4.0.upf
O 15.9994 O_ONCV_LDA-3.0.upf

ATOMIC_POSITIONS crystal
W 0.24101728699710925	0.28080417443655953	-0.000257215175834765	
W 0.7502572153071544	0.7191958255634404	-0.008982700516498967	
W 0.2589827130028908	0.21919584091421673	0.4997427830760704	
W 0.7497427792117446	0.7808041543106246	0.4910172869971092	
W 0.7589827006478186	0.28080417443655953	0.5002572169239297	
W 0.2497427830760704	0.7191958255634404	0.5089827130028908	
W 0.7410172938710804	0.21919584091421673	0.0002572209195749759	
W 0.2502572169239296	0.7808041543106246	0.008982706260239177	
O 0.2401207618188213	0.008032360987203183	-0.007167179898980193	
O 0.7571671725384648	-0.008032345353505242	-0.00987922594451474	
O 0.25987922594451474	0.49196763452055975	0.49283280536707746	
O 0.7428328144885992	0.5080323453535053	0.4901207658144667	
O 0.7598792185839993	0.008032360987203183	0.5071671903875493	
O 0.24283280137143212	-0.008032345353505242	0.5098792299401601	
O 0.7401207684430646	0.49196763452055975	0.007167178150885353	
O 0.25716718639190395	0.5080323453535053	0.009879224196419898	
O 0.5031790338521309	0.23934910854975408	0.4521217125796077	
O 0.5006517841575823	0.7568350488706957	0.5478782659960099	
O -0.0031790258608401646	0.26065088395841085	0.9521217455796077	
O -0.0006517804116646978	0.7431649618696611	0.04787829359865617	
O 0.4968209661478691	0.23934910854975408	0.04787829359865617	
O 0.49934821584241773	0.7568350488706957	0.9521217455796077	
O 0.0031790213657391206	0.26065088395841085	0.5478782659960099	
O 0.0006517759165636538	0.7431649618696611	0.4521217125796077	
O 0.7021217396164108	0.25683504362538123	0.7493482184710157	
O 0.29787828180797166	0.7606508969452882	0.2531790338521309	
O 0.7978782716084304	0.2431649488827837	0.2493482320747271	
O 0.20212172857960772	0.7393491137950686	0.7531790364807289	
O 0.29787828180797166	0.25683504362538123	0.7506517910315534	
O 0.7021217396164108	0.7606508969452882	0.24682098238017844	
O 0.20212172857960772	0.2431649488827837	0.25065178415758227	
O 0.7978782716084304	0.7393491137950686	0.7468209730218403	

K_POINTS automatic
6 6 6 0 0 0
