&CONTROL
    calculation   = 'scf'
    restart_mode  = 'from_scratch'
    prefix        = 'Landau_12'
    pseudo_dir    = '/cluster/scratch/mnoe/QE/pps'
    outdir        = './'
/
&SYSTEM
    ibrav       = 0
    nat         = 32
    ntyp        = 2
    ecutwfc     = 120
    occupations = 'smearing'
    degauss     = 7.35d-4
    tot_charge  = -0.2
/
&ELECTRONS
    conv_thr    = 1.0d-8
    diagonalization = 'david'
/

CELL_PARAMETERS angstrom
   7.460080398   0.000000035   0.000000008
   0.000000045   7.645735367  -0.000000188
   0.000000008  -0.000000179   7.460080597

ATOMIC_SPECIES
W 183.84 W_ONCV_LDA-4.0.upf
O 15.9994 O_ONCV_LDA-3.0.upf

ATOMIC_POSITIONS crystal
W 0.25	0.27230842992180904	0.0	
W 0.7499999492271305	0.727691570078191	0.0	
W 0.25	0.22769158825149516	0.5	
W 0.7499999492271305	0.7723084972942436	0.5	
W 0.7499999492271305	0.27230842992180904	0.5	
W 0.25	0.727691570078191	0.5	
W 0.7499999492271305	0.22769158825149516	0.0	
W 0.25	0.7723084972942436	0.0	
O 0.25	0.005717868227854224	0.0	
O 0.7499999492271305	0.9942820881327546	0.0	
O 0.25	0.4942821555051892	0.5	
O 0.7499999492271305	0.5057179118672454	0.5	
O 0.7499999492271305	0.005717868227854224	0.5	
O 0.25	0.9942820881327546	0.5	
O 0.7499999492271305	0.4942821555051892	0.0	
O 0.25	0.5057179118672454	0.0	
O 0.5	0.25	0.4728954795180725	
O 0.5	0.7500000325995652	0.5271045922009706	
O 0.0	0.25	0.9728955125180725	
O 0.0	0.7500000325995652	0.027104447629405934	
O 0.5	0.25	0.027104447629405934	
O 0.5	0.7500000325995652	0.9728955125180725	
O 0.0	0.25	0.5271045922009706	
O 0.0	0.7500000325995652	0.4728954795180725	
O 0.7228954585718989	0.25	0.7499999492271305	
O 0.27710446970905794	0.7500000325995652	0.25	
O 0.77710464297384	0.25	0.25	
O 0.2228954955180725	0.7500000325995652	0.7499999492271305	
O 0.27710446970905794	0.25	0.7499999492271305	
O 0.7228954585718989	0.7500000325995652	0.25	
O 0.2228954955180725	0.25	0.25	
O 0.77710464297384	0.7500000325995652	0.7499999492271305	

K_POINTS automatic
6 6 6 0 0 0
