&CONTROL
    calculation   = 'scf'
    restart_mode  = 'from_scratch'
    prefix        = 'Landau_7'
    pseudo_dir    = '/cluster/scratch/mnoe/QE/pps'
    outdir        = './'
/
&SYSTEM
    ibrav       = 0
    nat         = 32
    ntyp        = 2
    ecutwfc     = 120
    occupations = 'smearing'
    degauss     = 7.35d-4
    tot_charge  = -0.6
/
&ELECTRONS
    conv_thr    = 1.0d-8
    diagonalization = 'david'
/

CELL_PARAMETERS angstrom
   7.368181946   0.000000000   0.000000000
   0.000000000   7.697684629   0.000000000
   0.000000000   0.000000000   7.374856087

ATOMIC_SPECIES
W 183.84 W_ONCV_LDA-4.0.upf
O 15.9994 O_ONCV_LDA-3.0.upf

ATOMIC_POSITIONS crystal
W 0.24353001	0.2790866728314864	0.00612	
W 0.756469959257933	0.7209133271685135	0.993880002	
W 0.25646999	0.22091334308989272	0.50612003	
W 0.7435300112579329	0.7790866703942413	0.493880002	
W 0.756469959257933	0.2790866728314864	0.493880002	
W 0.24353001	0.7209133271685135	0.50612003	
W 0.7435300112579329	0.22091334308989272	0.993880002	
W 0.25646999	0.7790866703942413	0.00612	
O 0.238059992	0.007564462614999288	0.0019	
O 0.761940010257933	0.9924355410360377	0.99809997	
O 0.261940008	0.49243553859879263	0.50190003	
O 0.738059960257933	0.5075644589639623	0.498100002	
O 0.761940010257933	0.007564462614999288	0.498100002	
O 0.238059992	0.9924355410360377	0.50190003	
O 0.738059960257933	0.49243553859879263	0.99809997	
O 0.261940008	0.5075644589639623	0.0019	
O 0.501770034	0.237749996	0.4563213419350199	
O 0.498229966	0.7622500488206878	0.5436786554704933	
O 0.998229998	0.262250004	0.9563213749350199	
O 0.00177002	0.7377500098206878	0.04367864826636281	
O 0.498229966	0.237749996	0.04367864826636281	
O 0.501770034	0.7622500488206878	0.9563213749350199	
O 0.00177002	0.262250004	0.5436786554704933	
O 0.998229998	0.7377500098206878	0.4563213419350199	
O 0.7063213592715737	0.247320003	0.747319979257933	
O 0.29367864332291305	0.7526800408206878	0.252680006	
O 0.7936786702125603	0.252679997	0.247319929	
O 0.20632135793501988	0.7473200168206878	0.752679991257933	
O 0.29367864332291305	0.247320003	0.752679991257933	
O 0.7063213592715737	0.7526800408206878	0.247319929	
O 0.20632135793501988	0.252679997	0.252680006	
O 0.7936786702125603	0.7473200168206878	0.747319979257933	

K_POINTS automatic
6 6 6 0 0 0
