
&CONTROL
    calculation   = 'vc-relax'
    restart_mode  = 'from_scratch'
    prefix        = 'Landau_14'
    pseudo_dir    = '/cluster/scratch/mnoe/QE/pps'
    outdir        = './'
    forc_conv_thr = 1.0d-7
    etot_conv_thr = 1.0d-7

/
&SYSTEM
    ibrav       = 0
    nat         = 32
    ntyp        = 2
    ecutwfc     = 120
    occupations = 'smearing'
    degauss     = 7.35d-4
    tot_charge  = -0.0
/
&ELECTRONS
    conv_thr    = 1.0d-8
    diagonalization = 'david'
/


&IONS
ion_dynamics = 'bfgs'
/

&CELL
cell_dynamics = 'bfgs'
cell_dofree = 'all'
/
CELL_PARAMETERS angstrom
        7.3236460686         0.0000000000         0.0000000000
        0.0000000000         7.7495899200         0.0000000000
        0.0000000000         0.0000000000         7.3236460686

ATOMIC_SPECIES
W 183.84 W_ONCV_LDA-4.0.upf
O 15.9994 O_ONCV_LDA-3.0.upf

ATOMIC_POSITIONS crystal
W 0.2394395313888373	0.2710099613971861	-0.004706309227915195	 0 0 0
W 0.745905645434933	0.728990038602814	-0.010812458534558509	 0 0 0
W 0.26056046861116267	0.2289900572075063	0.4952936853894428	 0 0 0
W 0.754094248861719	0.7710100421426545	0.489187528568072	 0 0 0
W 0.760560403770877	0.2710099613971861	0.5047063146105571	 0 0 0
W 0.2540943077601272	0.728990038602814	0.510812471431928	 0 0 0
W 0.7394394905257751	0.2289900572075063	0.00470631324742058	 0 0 0
W 0.2459056922398728	0.7710100421426545	0.010812462554063894	 0 0 0
O 0.24175791160140192	0.005364126893794035	-0.013366063663043222	 0 0 0
O 0.7536870428714562	-0.005364179592337128	-0.015263970476701902	 0 0 0
O 0.258242071761341	0.4946359011531313	0.4866339179520886	 0 0 0
O 0.7463128388423964	0.5053641795923371	0.48473601568221864	 0 0 0
O 0.7582420192242371	0.005364126893794035	0.5133660829916213	 0 0 0
O 0.24631287704908986	-0.005364179592337128	0.5152639852614913	 0 0 0
O 0.7417578624896156	0.4946359011531313	0.013366062439715502	 0 0 0
O 0.25368710631365304	0.5053641795923371	0.015263969253374182	 0 0 0
O 0.504101289116713	0.24067719515525388	0.4760704905439592	 0 0 0
O 0.5023327039472252	0.7529140152967604	0.523929595410894	 0 0 0
O -0.004101267621097257	0.259322799601913	0.9760705235439593	 0 0 0
O -0.0023326854225481104	0.7470860989147075	0.02392942452464991	 0 0 0
O 0.4958987108832869	0.24067719515525388	0.02392942452464991	 0 0 0
O 0.4976672960527748	0.7529140152967604	0.9760705235439593	 0 0 0
O 0.004101280378657862	0.259322799601913	0.523929595410894	 0 0 0
O 0.0023326981801087146	0.7470860989147075	0.4760704905439592	 0 0 0
O 0.7260704622641864	0.2633489395214986	0.7507818431477308	 0 0 0
O 0.2739294517809601	0.7660193544764258	0.2534627174250393	 0 0 0
O 0.7739296530859745	0.23665104789570185	0.25078189834120346	 0 0 0
O 0.22607050654395927	0.7339807594903766	0.7534626735910384	 0 0 0
O 0.2739294517809601	0.2633489395214986	0.7492180763145203	 0 0 0
O 0.7260704622641864	0.7660193544764258	0.2465372939344325	 0 0 0
O 0.22607050654395927	0.23665104789570185	0.24921811301826832	 0 0 0
O 0.7739296530859745	0.7339807594903766	0.7465372458712127	 0 0 0

K_POINTS automatic
6 6 6 0 0 0
