
&CONTROL
    calculation   = 'vc-relax'
    restart_mode  = 'from_scratch'
    prefix        = 'Landau_10'
    pseudo_dir    = '/cluster/scratch/mnoe/QE/pps'
    outdir        = './'
    forc_conv_thr = 1.0d-7
    etot_conv_thr = 1.0d-7

/
&SYSTEM
    ibrav       = 0
    nat         = 32
    ntyp        = 2
    ecutwfc     = 120
    occupations = 'smearing'
    degauss     = 7.35d-4
    tot_charge  = -0.0
/
&ELECTRONS
    conv_thr    = 1.0d-8
    diagonalization = 'david'
/


&IONS
ion_dynamics = 'bfgs'
/

&CELL
cell_dynamics = 'bfgs'
cell_dofree = 'all'
/
CELL_PARAMETERS angstrom
        7.3236460686         0.0000000000         0.0000000000
        0.0000000000         7.7495899200         0.0000000000
        0.0000000000         0.0000000000         7.3236460686

ATOMIC_SPECIES
W 183.84 W_ONCV_LDA-4.0.upf
O 15.9994 O_ONCV_LDA-3.0.upf

ATOMIC_POSITIONS crystal
W 0.23493325531064793	0.2789129902053144	0.002575320470699873	 0 0 0
W 0.7534332421328914	0.7210870097946855	-0.014894669029300152	 0 0 0
W 0.2650667446893521	0.22108702577376707	0.5025753198104481	 0 0 0
W 0.7465667341944883	0.7789129895568409	0.48510530881044817	 0 0 0
W 0.7650667171944883	0.2789129902053144	0.4974246801895518	 0 0 0
W 0.24656674468935208	0.7210870097946855	0.5148946911895519	 0 0 0
W 0.7349332591328914	0.22108702577376707	-0.0025753089706999	 0 0 0
W 0.2534332553106479	0.7789129895568409	0.014894680529300125	 0 0 0
O 0.23112704018042884	0.0075171463168217795	-0.008648775720849709	 0 0 0
O 0.7652570130151248	-0.007517143877533253	-0.014078779220849689	 0 0 0
O 0.26887294083202373	0.49248285547399323	0.49135120029160284	 0 0 0
O 0.7347429533235753	0.5075171438775332	0.48592120979160286	 0 0 0
O 0.7688729173235753	0.0075171463168217795	0.5086487885356928	 0 0 0
O 0.2347429358320237	-0.007517143877533253	0.5140787790356929	 0 0 0
O 0.7311270490151248	0.49248285547399323	0.00864877222084973	 0 0 0
O 0.26525704518042886	0.5075171438775332	0.01407877572084971	 0 0 0
O 0.505083771729906	0.22995121745411864	0.45674603012933807	 0 0 0
O 0.5000237637299061	0.764961228634681	0.5432539691803514	 0 0 0
O -0.005083766587767204	0.2700487675458813	0.9567460631293381	 0 0 0
O -2.3767087767196347e-05	0.735038821048079	0.04325395845637993	 0 0 0
O 0.4949162282700939	0.22995121745411864	0.04325395845637993	 0 0 0
O 0.49997623627009385	0.764961228634681	0.9567460631293381	 0 0 0
O 0.005083746729906112	0.2700487675458813	0.5432539691803514	 0 0 0
O 2.374722990610475e-05	0.735038821048079	0.45674603012933807	 0 0 0
O 0.7067460464849527	0.2578367796508623	0.7478497622609795	 0 0 0
O 0.2932539542053579	0.7654768153201041	0.25551975293873613	 0 0 0
O 0.7932539848456553	0.24216321036045813	0.2478497994387361	 0 0 0
O 0.20674604612933808	0.7345232345296999	0.7555197482609796	 0 0 0
O 0.2932539542053579	0.2578367796508623	0.7521502340437591	 0 0 0
O 0.7067460464849527	0.7654768153201041	0.24448027956126392	 0 0 0
O 0.20674604612933808	0.24216321036045813	0.25215023306126394	 0 0 0
O 0.7932539848456553	0.7345232345296999	0.7444802480437591	 0 0 0

K_POINTS automatic
6 6 6 0 0 0
