
&CONTROL
    calculation   = 'vc-relax'
    restart_mode  = 'from_scratch'
    prefix        = 'Landau_3'
    pseudo_dir    = '/cluster/scratch/mnoe/QE/pps'
    outdir        = './'
    forc_conv_thr = 1.0d-7
    etot_conv_thr = 1.0d-7

/
&SYSTEM
    ibrav       = 0
    nat         = 32
    ntyp        = 2
    ecutwfc     = 120
    occupations = 'smearing'
    degauss     = 7.35d-4
    tot_charge  = -0.0
/
&ELECTRONS
    conv_thr    = 1.0d-8
    diagonalization = 'david'
/


&IONS
ion_dynamics = 'bfgs'
/

&CELL
cell_dynamics = 'bfgs'
cell_dofree = 'all'
/
CELL_PARAMETERS angstrom
        7.3236460686         0.0000000000         0.0000000000
        0.0000000000         7.7495899200         0.0000000000
        0.0000000000         0.0000000000         7.3236460686

ATOMIC_SPECIES
W 183.84 W_ONCV_LDA-4.0.upf
O 15.9994 O_ONCV_LDA-3.0.upf

ATOMIC_POSITIONS crystal
W 0.25	0.2814418131576875	0.0	 0 0 0
W 0.749999997777047	0.7185581868423124	0.0	 0 0 0
W 0.25	0.21855820198124704	0.5	 0 0 0
W 0.749999997777047	0.781441786464659	0.5	 0 0 0
W 0.749999997777047	0.2814418131576875	0.5	 0 0 0
W 0.25	0.7185581868423124	0.5	 0 0 0
W 0.749999997777047	0.21855820198124704	0.0	 0 0 0
W 0.25	0.781441786464659	0.0	 0 0 0
O 0.25	0.008206072684932432	0.0	 0 0 0
O 0.749999997777047	0.9917939473974418	0.0	 0 0 0
O 0.25	0.49179392070441325	0.5	 0 0 0
O 0.749999997777047	0.5082060526025582	0.5	 0 0 0
O 0.749999997777047	0.008206072684932432	0.5	 0 0 0
O 0.25	0.9917939473974418	0.5	 0 0 0
O 0.749999997777047	0.49179392070441325	0.0	 0 0 0
O 0.25	0.5082060526025582	0.0	 0 0 0
O 0.5	0.25	0.45056256044636556	 0 0 0
O 0.5	0.7499999870840185	0.549437411138475	 0 0 0
O 0.0	0.25	0.9505625934463655	 0 0 0
O 0.0	0.7499999870840185	0.04943745166346665	 0 0 0
O 0.5	0.25	0.04943745166346665	 0 0 0
O 0.5	0.7499999870840185	0.9505625934463655	 0 0 0
O 0.0	0.25	0.549437411138475	 0 0 0
O 0.0	0.7499999870840185	0.45056256044636556	 0 0 0
O 0.7005625910844779	0.25	0.749999997777047	 0 0 0
O 0.2994374373306814	0.7499999870840185	0.25	 0 0 0
O 0.799437413361428	0.25	0.25	 0 0 0
O 0.20056257644636558	0.7499999870840185	0.749999997777047	 0 0 0
O 0.2994374373306814	0.25	0.749999997777047	 0 0 0
O 0.7005625910844779	0.7499999870840185	0.25	 0 0 0
O 0.20056257644636558	0.25	0.25	 0 0 0
O 0.799437413361428	0.7499999870840185	0.749999997777047	 0 0 0

K_POINTS automatic
6 6 6 0 0 0
