&CONTROL
    calculation   = 'scf'
    restart_mode  = 'from_scratch'
    prefix        = 'Landau_7'
    pseudo_dir    = '/cluster/scratch/mnoe/QE/pps'
    outdir        = './'
/
&SYSTEM
    ibrav       = 0
    nat         = 32
    ntyp        = 2
    ecutwfc     = 120
    occupations = 'smearing'
    degauss     = 7.35d-4
    tot_charge  = -1.0
/
&ELECTRONS
    conv_thr    = 1.0d-8
    diagonalization = 'david'
/

CELL_PARAMETERS angstrom
   7.379602251   0.000000000   0.000000000
   0.000000000   7.685809666   0.000000000
   0.000000000   0.000000000   7.384462861

ATOMIC_SPECIES
W 183.84 W_ONCV_LDA-4.0.upf
O 15.9994 O_ONCV_LDA-3.0.upf

ATOMIC_POSITIONS crystal
W 0.24047120903809016	0.278432969953988	0.002880668334617434	
W 0.7534211906396264	0.7215670300460121	-0.009348324315382586	
W 0.25952879096190984	0.22156704618456988	0.5028806688629853	
W 0.7465787769469647	0.7784329742492824	0.49065166116298525	
W 0.7595287650469648	0.278432969953988	0.49711933113701473	
W 0.24657879096190985	0.7215670300460121	0.5093483388370147	
W 0.7404712025396264	0.22156704618456988	-0.002880660284617452	
W 0.2534212090380902	0.7784329742492824	0.009348332365382567	
O 0.23710531995722514	0.007386374564669044	-0.004065482253446097	
O 0.760996293690299	-0.007386375474384607	-0.007866484703446083	
O 0.26289466867431244	0.4926136288209098	0.4959345028780915	
O 0.7390036686522354	0.5073863754743846	0.4921335095280915	
O 0.7628946434522355	0.007386374564669044	0.5040654883687388	
O 0.23900366517431246	-0.007386375474384607	0.5078664817187387	
O 0.737105318890299	0.4926136288209098	0.004065479803446112	
O 0.2609963234572252	0.5073863754743846	0.007866482253446097	
O 0.5031117308582007	0.2364110142509123	0.45791977409132817	
O 0.4995697252582007	0.760918023501309	0.542080230481082	
O -0.0031117310460777835	0.2635889752490877	0.9579198070913282	
O 0.00043026860392222205	0.739082012318343	0.04208021002905106	
O 0.4968882691417993	0.2364110142509123	0.04208021002905106	
O 0.5004302747417992	0.760918023501309	0.9579198070913282	
O 0.003111713358200709	0.2635889752490877	0.542080230481082	
O -0.0004302862917992965	0.739082012318343	0.45791977409132817	
O 0.7079197877358442	0.25344580949170276	0.7481999914193728	
O 0.29208020769174564	0.7587938341361562	0.25356899406783645	
O 0.7920802486980081	0.24655418526424053	0.24820002661783647	
O 0.20791979009132816	0.7412062018586939	0.7535689816193727	
O 0.29208020769174564	0.25344580949170276	0.751799986655332	
O 0.7079197877358442	0.7587938341361562	0.24643102868216354	
O 0.20791979009132816	0.24655418526424053	0.2517999961321636	
O 0.7920802486980081	0.7412062018586939	0.746430996455332	

K_POINTS automatic
6 6 6 0 0 0
