&CONTROL
    calculation   = 'scf'
    restart_mode  = 'from_scratch'
    prefix        = 'Landau_3'
    pseudo_dir    = '/cluster/scratch/mnoe/QE/pps'
    outdir        = './'
/
&SYSTEM
    ibrav       = 0
    nat         = 16
    ntyp        = 2
    ecutwfc     = 120
    occupations = 'smearing'
    degauss     = 7.35d-4
    tot_charge  = -0.18
/
&ELECTRONS
    conv_thr    = 1.0d-8
    diagonalization = 'david'
/

CELL_PARAMETERS angstrom
   5.194015478   0.000000000   0.000000000
   0.000000000   5.194015478   0.000000000
   0.000000000   0.000000000   7.735263850

ATOMIC_SPECIES
W 183.84 W_ONCV_LDA-4.0.upf
O 15.9994 O_ONCV_LDA-3.0.upf

ATOMIC_POSITIONS crystal
W       0.24999999999999237	0.2499999999999864	0.21710150211642323	
W       0.7500000229999934	0.7500000229999975	0.7828985128832867	
W       0.7500000230000022	0.7500000230000058	0.2828985128835766	
W       0.24999999999999095	0.2500000000000043	0.7171014871167133	
O      0.24999999999996755	0.24999999999998973	0.48974262521219564	
O      0.7500000229999991	0.7500000230000388	0.5102573747882503	
O      0.7500000229999846	0.7500000230000022	0.010257387787804977	
O      0.24999999999997222	0.25000000000000644	0.9897426252117487	
O       0.454676215723476	0.5453237382765154	0.25000000000000505	
O       0.5453237842797263	0.4546762617202774	0.7499999999999998	
O       0.04532376727655603	0.9546762617234275	0.2500000000000005	
O       0.9546761697203175	0.04532380127969444	0.7500000000000245	
O       0.9546762617234468	0.4546762157234423	0.2500000000000188	
O       0.04532380127972385	0.5453237842797234	0.749999999999997	
O       0.5453237382765389	0.04532376727654498	0.2499999999999858	
O       0.45467626172031966	0.9546761697203118	0.7499999999999695	

K_POINTS automatic
9 9 6 0 0 0
