
&CONTROL
    calculation   = 'vc-relax'
    restart_mode  = 'from_scratch'
    prefix        = 'Landau_16'
    pseudo_dir    = '/cluster/scratch/mnoe/QE/pps'
    outdir        = './'
    forc_conv_thr = 1.0d-7
    etot_conv_thr = 1.0d-7

/
&SYSTEM
    ibrav       = 0
    nat         = 32
    ntyp        = 2
    ecutwfc     = 120
    occupations = 'smearing'
    degauss     = 7.35d-4
    tot_charge  = -0.0
/
&ELECTRONS
    conv_thr    = 1.0d-8
    diagonalization = 'david'
/


&IONS
ion_dynamics = 'bfgs'
/

&CELL
cell_dynamics = 'bfgs'
cell_dofree = 'all'
/
CELL_PARAMETERS angstrom
        7.3236460686         0.0000000000         0.0000000000
        0.0000000000         7.7495899200         0.0000000000
        0.0000000000         0.0000000000         7.3236460686

ATOMIC_SPECIES
W 183.84 W_ONCV_LDA-4.0.upf
O 15.9994 O_ONCV_LDA-3.0.upf

ATOMIC_POSITIONS crystal
W 0.2270565574349071	0.27558431745841516	0.005352448758979823	 0 0 0
W 0.7566565258580928	0.7244156825415848	-0.022599534441020218	 0 0 0
W 0.2729434425650929	0.22441569962654603	0.5053524488346274	 0 0 0
W 0.7433434181443285	0.7755843510922152	0.4774004312346274	 0 0 0
W 0.7729433909443284	0.27558431745841516	0.49464755116537257	 0 0 0
W 0.2433434425650929	0.7244156825415848	0.5225995687653726	 0 0 0
W 0.7270565530580928	0.22441569962654603	-0.0053524303589798684	 0 0 0
W 0.2566565574349071	0.7755843510922152	0.022599552841020172	 0 0 0
O 0.2201648549526004	0.006610317143985389	-0.011565286009189588	 0 0 0
O 0.7747728031932197	-0.006610337928172556	-0.020253291609189556	 0 0 0
O 0.2798351168648332	0.4933896957056276	0.488434677808244	 0 0 0
O 0.7252271268250503	0.5066103379281726	0.47974669300824396	 0 0 0
O 0.7798350692250503	0.006610317143985389	0.51156530324997	 0 0 0
O 0.22522710886483321	-0.006610337928172556	0.5202532880499701	 0 0 0
O 0.7201648607932197	0.4933896957056276	0.01156528040918962	 0 0 0
O 0.2747728629526004	0.5066103379281726	0.02025328600918959	 0 0 0
O 0.5076232812218685	0.21843070453576613	0.4648852899362268	 0 0 0
O 0.49952726842186856	0.7744467382022613	0.5351147458674959	 0 0 0
O -0.0076232773228740855	0.28156927146423383	0.9648853229362269	 0 0 0
O 0.00047272187712592544	0.7255533707810187	0.03511466768485692	 0 0 0
O 0.49237671877813144	0.21843070453576613	0.03511466768485692	 0 0 0
O 0.5004727315781314	0.7744467382022613	0.9648853229362269	 0 0 0
O 0.007623241221868556	0.28156927146423383	0.5351147458674959	 0 0 0
O -0.0004727579781314546	0.7255533707810187	0.4648852899362268	 0 0 0
O 0.7148852874918848	0.2602074917112073	0.7462226571374163	 0 0 0
O 0.2851146767043924	0.7724315625618537	0.25849465271423056	 0 0 0
O 0.7851147792268764	0.2397924943046414	0.24622272711423054	 0 0 0
O 0.21488530593622682	0.7275685467552878	0.7584946347374163	 0 0 0
O 0.2851146767043924	0.2602074917112073	0.7537773148333076	 0 0 0
O 0.7148852874918848	0.7724315625618537	0.2415053992857695	 0 0 0
O 0.21488530593622682	0.2397924943046414	0.2537773248857695	 0 0 0
O 0.7851147792268764	0.7275685467552878	0.7415053372333076	 0 0 0

K_POINTS automatic
6 6 6 0 0 0
