&CONTROL
    calculation   = 'scf'
    restart_mode  = 'from_scratch'
    prefix        = 'Landau_9'
    pseudo_dir    = '/cluster/scratch/mnoe/QE/pps'
    outdir        = './'
/
&SYSTEM
    ibrav       = 0
    nat         = 32
    ntyp        = 2
    ecutwfc     = 120
    occupations = 'smearing'
    degauss     = 7.35d-4
    tot_charge  = -0.6
/
&ELECTRONS
    conv_thr    = 1.0d-8
    diagonalization = 'david'
/

CELL_PARAMETERS angstrom
   7.346098694   0.000000000   0.000000000
   0.000000000   7.678200882   0.000000000
   0.000000000   0.000000000   7.346098694

ATOMIC_SPECIES
W 183.84 W_ONCV_LDA-4.0.upf
O 15.9994 O_ONCV_LDA-3.0.upf

ATOMIC_POSITIONS crystal
W 0.23381349505000001	0.28096156531443855	-0.00046349189999999804	
W 0.750463497474215	0.7190384346855614	-0.01618648245000002	
W 0.26618650495	0.219038449984048	0.49953650495	
W 0.7495365033242151	0.780961543567522	0.48381349505	
W 0.766186488024215	0.28096156531443855	0.50046349505	
W 0.24953650495000002	0.7190384346855614	0.51618650495	
W 0.733813512774215	0.219038449984048	0.0004635022499999749	
W 0.25046349505	0.780961543567522	0.016186492799999997	
O 0.232197991	0.008075238929990432	-0.012914983800000005	
O 0.7629149758742151	-0.008075222198208208	-0.017801986949999987	
O 0.26780198695	0.4919247560548752	0.48708498965	
O 0.737085011424215	0.5080752221982082	0.4821979982	
O 0.767801979024215	0.008075238929990432	0.5129150027	
O 0.23708498245	-0.008075222198208208	0.51780199415	
O 0.732198008274215	0.4919247560548752	0.012914980650000022	
O 0.2629149955	0.5080752221982082	0.017801983800000004	
O 0.5057284973	0.23080750135	0.4517368609153866	
O 0.5011744901	0.7623165034272984	0.5482631159346699	
O -0.005728482900000005	0.26919248515	0.9517368939153866	
O -0.001174483349999999	0.7376835299772985	0.04826314672698965	
O 0.4942715027	0.23080750135	0.04826314672698965	
O 0.49882550989999996	0.7623165034272984	0.9517368939153866	
O 0.005728474800000008	0.26919248515	0.5482631159346699	
O 0.001174475250000001	0.7376835299772985	0.4517368609153866	
O 0.7017368888411151	0.26231648695	0.748825519974215	
O 0.2982631343088284	0.7691925155772985	0.2557284973	
O 0.7982631207104549	0.23768349954999998	0.24882553915	
O 0.20173687691538664	0.7308075178272985	0.755728507374215	
O 0.2982631343088284	0.26231648695	0.751174507824215	
O 0.7017368888411151	0.7691925155772985	0.24427153195000004	
O 0.20173687691538664	0.23768349954999998	0.25117449010000004	
O 0.7982631207104549	0.7308075178272985	0.744271520424215	

K_POINTS automatic
6 6 6 0 0 0
