
&CONTROL
    calculation   = 'vc-relax'
    restart_mode  = 'from_scratch'
    prefix        = 'Landau_11'
    pseudo_dir    = '/cluster/scratch/mnoe/QE/pps'
    outdir        = './'
    forc_conv_thr = 1.0d-7
    etot_conv_thr = 1.0d-7

/
&SYSTEM
    ibrav       = 0
    nat         = 32
    ntyp        = 2
    ecutwfc     = 120
    occupations = 'smearing'
    degauss     = 7.35d-4
    tot_charge  = -0.0
/
&ELECTRONS
    conv_thr    = 1.0d-8
    diagonalization = 'david'
/


&IONS
ion_dynamics = 'bfgs'
/

&CELL
cell_dynamics = 'bfgs'
cell_dofree = 'all'
/
CELL_PARAMETERS angstrom
        7.3236460686         0.0000000000         0.0000000000
        0.0000000000         7.7495899200         0.0000000000
        0.0000000000         0.0000000000         7.3236460686

ATOMIC_SPECIES
W 183.84 W_ONCV_LDA-4.0.upf
O 15.9994 O_ONCV_LDA-3.0.upf

ATOMIC_POSITIONS crystal
W 0.24170248894837218	0.27333497031207477	-0.0036978143933619405	 0 0 0
W 0.7467830071274474	0.7266650296879252	-0.008495503134295972	 0 0 0
W 0.25829751105162785	0.22666504752018352	0.4963021813774193	 0 0 0
W 0.7532169098199221	0.7733350271120857	0.4915044867320566	 0 0 0
W 0.7582974601056891	0.27333497031207477	0.5036978186225807	 0 0 0
W 0.2532169560972428	0.7266650296879252	0.5084955132679434	 0 0 0
W 0.7417024568416805	0.22666504752018352	0.003697817551544743	 0 0 0
W 0.2467830439027572	0.7733350271120857	0.008495506292478774	 0 0 0
O 0.2435240734011015	0.005997528273695313	-0.010501907163819678	 0 0 0
O 0.7528969622561441	-0.005997564751122025	-0.011993119660265783	 0 0 0
O 0.2564759135267679	0.49400249204888885	0.4894980783909268	 0 0 0
O 0.74710294480474	0.505997564751122	0.48800686946460037	 0 0 0
O 0.7564758722476148	0.005997528273695313	0.5105019223505596	 0 0 0
O 0.2471029748242849	-0.005997564751122025	0.5119931312768861	 0 0 0
O 0.7435240348132695	0.49400249204888885	0.01050190620263361	 0 0 0
O 0.2528970121035845	0.505997564751122	0.011993118699079715	 0 0 0
O 0.503222441448846	0.24267493905055662	0.4703853862845394	 0 0 0
O 0.5018328388156769	0.7522895802331689	0.5296146741799882	 0 0 0
O -0.0032224245594335596	0.2573250568300745	0.9703854192845394	 0 0 0
O -0.0018328242605735157	0.7477105030758415	0.02961455041222493	 0 0 0
O 0.496777558551154	0.24267493905055662	0.02961455041222493	 0 0 0
O 0.4981671611843231	0.7522895802331689	0.9703854192845394	 0 0 0
O 0.003222434583231177	0.2573250568300745	0.5296146741799882	 0 0 0
O 0.0018328342843711332	0.7477105030758415	0.4703853862845394	 0 0 0
O 0.7203853711361464	0.26048845248117747	0.7506143053303599	 0 0 0
O 0.2796145683993258	0.7625866324457632	0.25272070654824513	 0 0 0
O 0.7796147194961228	0.23951153763233718	0.2506143486966599	 0 0 0
O 0.2203854022845394	0.7374134506710102	0.7527206721072444	 0 0 0
O 0.2796145683993258	0.26048845248117747	0.7493856313899803	 0 0 0
O 0.7203853711361464	0.7625866324457632	0.24727930237705412	 0 0 0
O 0.2203854022845394	0.23951153763233718	0.2493856602286394	 0 0 0
O 0.7796147194961228	0.7374134506710102	0.7472792646130958	 0 0 0

K_POINTS automatic
6 6 6 0 0 0
