
&CONTROL
    calculation   = 'vc-relax'
    restart_mode  = 'from_scratch'
    prefix        = 'Landau_15'
    pseudo_dir    = '/cluster/scratch/mnoe/QE/pps'
    outdir        = './'
    forc_conv_thr = 1.0d-7
    etot_conv_thr = 1.0d-7

/
&SYSTEM
    ibrav       = 0
    nat         = 32
    ntyp        = 2
    ecutwfc     = 120
    occupations = 'smearing'
    degauss     = 7.35d-4
    tot_charge  = -0.0
/
&ELECTRONS
    conv_thr    = 1.0d-8
    diagonalization = 'david'
/


&IONS
ion_dynamics = 'bfgs'
/

&CELL
cell_dynamics = 'bfgs'
cell_dofree = 'all'
/
CELL_PARAMETERS angstrom
        7.3236460686         0.0000000000         0.0000000000
        0.0000000000         7.7495899200         0.0000000000
        0.0000000000         0.0000000000         7.3236460686

ATOMIC_SPECIES
W 183.84 W_ONCV_LDA-4.0.upf
O 15.9994 O_ONCV_LDA-3.0.upf

ATOMIC_POSITIONS crystal
W 0.243059999	0.28321755256090003	0.00655	 0 0 0
W 0.756940017	0.7167824474391	0.993450003	 0 0 0
W 0.256940001	0.216782460640225	0.506550029	 0 0 0
W 0.743059983	0.7832175215609	0.493449971	 0 0 0
W 0.756940017	0.28321755256090003	0.493449971	 0 0 0
W 0.243059999	0.7167824474391	0.506550029	 0 0 0
W 0.743059983	0.216782460640225	0.993450003	 0 0 0
W 0.256940001	0.7832175215609	0.00655	 0 0 0
O 0.23720001	0.010888793619925	0.00204	 0 0 0
O 0.762799957	0.98911123261805	0.997959979	 0 0 0
O 0.262799974	0.489111197900375	0.502040021	 0 0 0
O 0.737200043	0.5108887748173	0.497960012	 0 0 0
O 0.762799957	0.010888793619925	0.497960012	 0 0 0
O 0.23720001	0.98911123261805	0.502040021	 0 0 0
O 0.737200043	0.489111197900375	0.997959979	 0 0 0
O 0.262799974	0.5108887748173	0.00204	 0 0 0
O 0.50190003	0.236870006	0.456556820547	 0 0 0
O 0.49809997	0.763130009	0.543443154248125	 0 0 0
O 0.99809997	0.263130009	0.9565568477906	 0 0 0
O 0.001899958	0.736870022	0.043443200729699996	 0 0 0
O 0.49809997	0.236870006	0.043443200729699996	 0 0 0
O 0.50190003	0.763130009	0.9565568477906	 0 0 0
O 0.001899958	0.263130009	0.543443154248125	 0 0 0
O 0.99809997	0.736870022	0.456556820547	 0 0 0
O 0.706556857504525	0.247130007	0.747120036	 0 0 0
O 0.2934431852094	0.752869978	0.252879981	 0 0 0
O 0.7934431502906	0.252869993	0.247120019	 0 0 0
O 0.206556836666925	0.747130053	0.752879964	 0 0 0
O 0.2934431852094	0.247130007	0.752879964	 0 0 0
O 0.706556857504525	0.752869978	0.247120019	 0 0 0
O 0.206556836666925	0.252869993	0.252879981	 0 0 0
O 0.7934431502906	0.747130053	0.747120036	 0 0 0

K_POINTS automatic
6 6 6 0 0 0
