
&CONTROL
    calculation   = 'vc-relax'
    restart_mode  = 'from_scratch'
    prefix        = 'Landau_15'
    pseudo_dir    = '/cluster/scratch/mnoe/QE/pps'
    outdir        = './'
    forc_conv_thr = 1.0d-7
    etot_conv_thr = 1.0d-7

/
&SYSTEM
    ibrav       = 0
    nat         = 32
    ntyp        = 2
    ecutwfc     = 120
    occupations = 'smearing'
    degauss     = 7.35d-4
    tot_charge  = -0.0
/
&ELECTRONS
    conv_thr    = 1.0d-8
    diagonalization = 'david'
/


&IONS
ion_dynamics = 'bfgs'
/

&CELL
cell_dynamics = 'bfgs'
cell_dofree = 'all'
/
CELL_PARAMETERS angstrom
        7.3236460686         0.0000000000         0.0000000000
        0.0000000000         7.7495899200         0.0000000000
        0.0000000000         0.0000000000         7.3236460686

ATOMIC_SPECIES
W 183.84 W_ONCV_LDA-4.0.upf
O 15.9994 O_ONCV_LDA-3.0.upf

ATOMIC_POSITIONS crystal
W 0.243059999	0.28036872618696446	0.00655	 0 0 0
W 0.7569400090728866	0.7196312738130355	0.993450003	 0 0 0
W 0.256940001	0.2196312893084801	0.506550029	 0 0 0
W 0.7430599750728866	0.7803687105457466	0.493449971	 0 0 0
W 0.7569400090728866	0.28036872618696446	0.493449971	 0 0 0
W 0.243059999	0.7196312738130355	0.506550029	 0 0 0
W 0.7430599750728866	0.2196312893084801	0.993450003	 0 0 0
W 0.256940001	0.7803687105457466	0.00655	 0 0 0
O 0.23720001	0.007913731970168933	0.00204	 0 0 0
O 0.7627999490728866	0.9920862806254948	0.997959979	 0 0 0
O 0.262799974	0.49208626498427693	0.502040021	 0 0 0
O 0.7372000350728866	0.5079137193745052	0.497960012	 0 0 0
O 0.7627999490728866	0.007913731970168933	0.497960012	 0 0 0
O 0.23720001	0.9920862806254948	0.502040021	 0 0 0
O 0.7372000350728866	0.49208626498427693	0.997959979	 0 0 0
O 0.262799974	0.5079137193745052	0.00204	 0 0 0
O 0.50190003	0.236870006	0.4531864692274971	 0 0 0
O 0.49809997	0.7631300164316689	0.5468135141221743	 0 0 0
O 0.99809997	0.263130009	0.9531865022274971	 0 0 0
O 0.001899958	0.7368700294316688	0.04681353290005443	 0 0 0
O 0.49809997	0.236870006	0.04681353290005443	 0 0 0
O 0.50190003	0.7631300164316689	0.9531865022274971	 0 0 0
O 0.001899958	0.263130009	0.5468135141221743	 0 0 0
O 0.99809997	0.7368700294316688	0.4531864692274971	 0 0 0
O 0.7031864938049391	0.247130007	0.7471200280728866	 0 0 0
O 0.2968135228453895	0.7528699854316688	0.252879981	 0 0 0
O 0.7968135220492877	0.252869993	0.247120019	 0 0 0
O 0.20318648522749713	0.7471300604316689	0.7528799560728866	 0 0 0
O 0.2968135228453895	0.247130007	0.7528799560728866	 0 0 0
O 0.7031864938049391	0.7528699854316688	0.247120019	 0 0 0
O 0.20318648522749713	0.252869993	0.252879981	 0 0 0
O 0.7968135220492877	0.7471300604316689	0.7471200280728866	 0 0 0

K_POINTS automatic
6 6 6 0 0 0
