&CONTROL
    calculation   = 'scf'
    restart_mode  = 'from_scratch'
    prefix        = 'Landau_8'
    pseudo_dir    = '/cluster/scratch/mnoe/QE/pps'
    outdir        = './'
/
&SYSTEM
    ibrav       = 0
    nat         = 32
    ntyp        = 2
    ecutwfc     = 120
    occupations = 'smearing'
    degauss     = 7.35d-4
    tot_charge  = -1.0
/
&ELECTRONS
    conv_thr    = 1.0d-8
    diagonalization = 'david'
/

CELL_PARAMETERS angstrom
   7.375692576   0.000000000   0.000000000
   0.000000000   7.680170589   0.000000000
   0.000000000   0.000000000   7.381365637

ATOMIC_SPECIES
W 183.84 W_ONCV_LDA-4.0.upf
O 15.9994 O_ONCV_LDA-3.0.upf

ATOMIC_POSITIONS crystal
W 0.23852827871745355	0.2787221602292076	0.0026762243794899113	
W 0.7533282629290464	0.7212778397707924	-0.011299767220510109	
W 0.2614717212825465	0.22127785581327303	0.5026762244173137	
W 0.7466717090721642	0.7787221615461076	0.4887002156173137	
W 0.7614716954721642	0.2787221602292076	0.49732377558268626	
W 0.24667172128254644	0.7212778397707924	0.5112997843826863	
W 0.7385282765290464	0.22127785581327303	-0.0026762151794899342	
W 0.25332827871745356	0.7787221615461076	0.011299776420510086	
O 0.2350824274763002	0.007465158571992694	-0.005782643004594794	
O 0.7623864015966099	-0.007465157464086268	-0.010126645804594778	
O 0.2649175584324166	0.4925348438528138	0.494217338904122	
O 0.7376135634125252	0.5074651574640863	0.489873346504122	
O 0.7649175346125251	0.007465158571992694	0.505782651624985	
O 0.2376135544324166	-0.007465157464086268	0.510126644024985	
O 0.7350824303966098	0.4925348438528138	0.00578264020459481	
O 0.2623864314763002	0.5074651574640863	0.010126643004594794	
O 0.5038116406109343	0.23421535226788306	0.4572126469681134	
O 0.4997636342109343	0.7622233616011306	0.5427873544337479	
O -0.0038116386614370427	0.2657846357321169	0.9572126799681134	
O 0.00023636093856296272	0.7377766778905094	0.04278733984242846	
O 0.4961883593890657	0.23421535226788306	0.04278733984242846	
O 0.5002363657890657	0.7622233616011306	0.9572126799681134	
O 0.003811620610934278	0.2657846357321169	0.5427873544337479	
O -0.0002363789890657273	0.7377766778905094	0.4572126469681134	
O 0.7072126622459425	0.25510374585560364	0.7481113285687081	
O 0.2927873363521962	0.7612157737809269	0.2542473263571153	
O 0.7927873711134382	0.2448962471523207	0.24811136355711527	
O 0.20721266296811341	0.7387842658776439	0.7542473173687081	
O 0.2927873363521962	0.25510374585560364	0.7518886574166538	
O 0.7072126622459425	0.7612157737809269	0.24575269964288474	
O 0.20721266296811341	0.2448962471523207	0.25188866244288477	
O 0.7927873711134382	0.7387842658776439	0.7457526686166538	

K_POINTS automatic
6 6 6 0 0 0
