&CONTROL
    calculation   = 'scf'
    restart_mode  = 'from_scratch'
    prefix        = 'Landau_8'
    pseudo_dir    = '/cluster/scratch/mnoe/QE/pps'
    outdir        = './'
/
&SYSTEM
    ibrav       = 0
    nat         = 32
    ntyp        = 2
    ecutwfc     = 120
    occupations = 'smearing'
    degauss     = 7.35d-4
    tot_charge  = -1.0
/
&ELECTRONS
    conv_thr    = 1.0d-8
    diagonalization = 'david'
/

CELL_PARAMETERS angstrom
   7.420233408   0.000000000   0.000000000
   0.000000000   7.671466584   0.000000000
   0.000000000   0.000000000   7.422099473

ATOMIC_SPECIES
W 183.84 W_ONCV_LDA-4.0.upf
O 15.9994 O_ONCV_LDA-3.0.upf

ATOMIC_POSITIONS crystal
W 0.2463041885862689	0.2755766727399321	0.003490044815875341	
W 0.7536957746175627	0.724423327260068	-0.0034900402210827834	
W 0.2536958114137311	0.22442334434756891	0.5034900468136112	
W 0.7463041585824025	0.7755767064524658	0.49650995318638874	
W 0.7536957746175627	0.2755766727399321	0.49650995318638874	
W 0.2463041885862689	0.724423327260068	0.5034900468136112	
W 0.7463041585824025	0.22442334434756891	-0.0034900402210827834	
W 0.2536958114137311	0.7755767064524658	0.003490044815875341	
O 0.24318172477858427	0.006608234495955467	0.001084770593327562	
O 0.7568182320324924	-0.006608255333478288	-0.0010847719917426834	
O 0.2568182720250383	0.4933917783790554	0.5010847653992142	
O 0.7431817011674728	0.5066082553334783	0.4989152280082573	
O 0.7568182320324924	0.006608234495955467	0.4989152280082573	
O 0.24318172477858427	-0.006608255333478288	0.5010847653992142	
O 0.7431817011674728	0.4933917783790554	-0.0010847719917426834	
O 0.2568182720250383	0.5066082553334783	0.001084770593327562	
O 0.5010108559632417	0.2430059268162749	0.46490398277707223	
O 0.4989891440367583	0.7569940924928453	0.5350960531104635	
O -0.0010108625557701302	0.25699406719051743	0.9649040157770723	
O 0.001010845974562163	0.7430059521186028	0.03509597477289728	
O 0.4989891440367583	0.2430059268162749	0.03509597477289728	
O 0.5010108559632417	0.7569940924928453	0.9649040157770723	
O 0.001010845974562163	0.25699406719051743	0.5350960531104635	
O -0.0010108625557701302	0.7430059521186028	0.46490398277707223	
O 0.7149039802895538	0.2484737301724712	0.7484677059620389	
O 0.28509598382291024	0.7515262953296303	0.25153226063794365	
O 0.7850960865104809	0.2515262698275288	0.24846775234733967	
O 0.21490399877707225	0.7484737494815914	0.7515322272379263	
O 0.28509598382291024	0.2484737301724712	0.7515322272379263	
O 0.7149039802895538	0.7515262953296303	0.24846775234733967	
O 0.21490399877707225	0.2515262698275288	0.25153226063794365	
O 0.7850960865104809	0.7484737494815914	0.7484677059620389	

K_POINTS automatic
6 6 6 0 0 0
