
&CONTROL
    calculation   = 'vc-relax'
    restart_mode  = 'from_scratch'
    prefix        = 'Landau_10'
    pseudo_dir    = '/cluster/scratch/mnoe/QE/pps'
    outdir        = './'
    forc_conv_thr = 1.0d-7
    etot_conv_thr = 1.0d-7

/
&SYSTEM
    ibrav       = 0
    nat         = 32
    ntyp        = 2
    ecutwfc     = 120
    occupations = 'smearing'
    degauss     = 7.35d-4
    tot_charge  = -0.0
/
&ELECTRONS
    conv_thr    = 1.0d-8
    diagonalization = 'david'
/


&IONS
ion_dynamics = 'bfgs'
/

&CELL
cell_dynamics = 'bfgs'
cell_dofree = 'all'
/
CELL_PARAMETERS angstrom
        7.3236460686         0.0000000000         0.0000000000
        0.0000000000         7.7495899200         0.0000000000
        0.0000000000         0.0000000000         7.3236460686

ATOMIC_SPECIES
W 183.84 W_ONCV_LDA-4.0.upf
O 15.9994 O_ONCV_LDA-3.0.upf

ATOMIC_POSITIONS crystal
        0.245380002         0.281860003         0.004370000 0 0 0
        0.754620015         0.718139997         0.995630015 0 0 0
        0.254620015         0.218140012         0.504369985 0 0 0
        0.745379985         0.781859972         0.495629982 0 0 0
        0.754620015         0.281860003         0.495629982 0 0 0
        0.245380002         0.718139997         0.504369985 0 0 0
        0.745379985         0.218140012         0.995630015 0 0 0
        0.254620015         0.781859972         0.004370000 0 0 0
        0.241469999         0.008320000         0.001360000 0 0 0
        0.758530049         0.991680023         0.998640008 0 0 0
        0.258530017         0.491679992         0.501359992 0 0 0
        0.741469951         0.508319977         0.498640008 0 0 0
        0.758530049         0.008320000         0.498640008 0 0 0
        0.241469999         0.991680023         0.501359992 0 0 0
        0.741469951         0.491679992         0.998640008 0 0 0
        0.258530017         0.508319977         0.001360000 0 0 0
        0.501259980         0.241249988         0.449540004 0 0 0
        0.498740020         0.758750012         0.550459963 0 0 0
        0.998740020         0.258750012         0.949540037 0 0 0
        0.001260042         0.741249958         0.050460012 0 0 0
        0.498740020         0.241249988         0.050460012 0 0 0
        0.501259980         0.758750012         0.949540037 0 0 0
        0.001260042         0.258750012         0.550459963 0 0 0
        0.998740020         0.741249958         0.449540004 0 0 0
        0.699540037         0.248090004         0.748080045 0 0 0
        0.300459996         0.751909950         0.251919987 0 0 0
        0.800459963         0.251909996         0.248080013 0 0 0
        0.199540020         0.748090020         0.751919955 0 0 0
        0.300459996         0.248090004         0.751919955 0 0 0
        0.699540037         0.751909950         0.248080013 0 0 0
        0.199540020         0.251909996         0.251919987 0 0 0
        0.800459963         0.748090020         0.748080045 0 0 0

K_POINTS automatic
6 6 6 0 0 0
