&CONTROL
    calculation   = 'scf'
    restart_mode  = 'from_scratch'
    prefix        = 'Landau_1'
    pseudo_dir    = '/cluster/scratch/mnoe/QE/pps'
    outdir        = './'
/
&SYSTEM
    ibrav       = 0
    nat         = 16
    ntyp        = 2
    ecutwfc     = 120
    occupations = 'smearing'
    degauss     = 7.35d-4
    tot_charge  = -0.18
/
&ELECTRONS
    conv_thr    = 1.0d-8
    diagonalization = 'david'
/

CELL_PARAMETERS angstrom
5.20405781732103450262 0 0
0 5.20405781732103450262 0
0 0 7.73602781153931034507

ATOMIC_SPECIES
W 183.84 W_ONCV_LDA-4.0.upf
O 15.9994 O_ONCV_LDA-3.0.upf

ATOMIC_POSITIONS crystal
W           0.24999999999999745	0.24999999999999545	0.21778049470547442	
W           0.7500000229999978	0.7500000229999991	0.7822195202944289	
W           0.7500000230000008	0.7500000230000019	0.2822195202945255	
W           0.24999999999999697	0.25000000000000144	0.7177804797055711	
O          0.24999999999998918	0.24999999999999659	0.49102755907073187	
O          0.7500000229999997	0.7500000230000129	0.5089724409294167	
O          0.7500000229999949	0.7500000230000008	0.008972453929268326	
O          0.24999999999999073	0.25000000000000216	0.9910275590705829	
O           0.4511653892411587	0.5488345647588384	0.25000000000000167	
O           0.5488346107599088	0.4511654352400925	0.7499999999999999	
O           0.04883459375885201	0.9511654352411425	0.25000000000000017	
O           0.9511653432401058	0.04883462775989815	0.7500000000000082	
O           0.9511654352411489	0.4511653892411474	0.2500000000000063	
O           0.04883462775990795	0.5488346107599078	0.749999999999999	
O           0.5488345647588463	0.04883459375884833	0.24999999999999525	
O           0.45116543524010655	0.9511653432401039	0.7499999999999898	

K_POINTS automatic
9 9 6 0 0 0
