
&CONTROL
    calculation   = 'vc-relax'
    restart_mode  = 'from_scratch'
    prefix        = 'Landau_14'
    pseudo_dir    = '/cluster/scratch/mnoe/QE/pps'
    outdir        = './'
    forc_conv_thr = 1.0d-7
    etot_conv_thr = 1.0d-7

/
&SYSTEM
    ibrav       = 0
    nat         = 32
    ntyp        = 2
    ecutwfc     = 120
    occupations = 'smearing'
    degauss     = 7.35d-4
    tot_charge  = -0.0
/
&ELECTRONS
    conv_thr    = 1.0d-8
    diagonalization = 'david'
/


&IONS
ion_dynamics = 'bfgs'
/

&CELL
cell_dynamics = 'bfgs'
cell_dofree = 'all'
/
CELL_PARAMETERS angstrom
        7.3236460686         0.0000000000         0.0000000000
        0.0000000000         7.7495899200         0.0000000000
        0.0000000000         0.0000000000         7.3236460686

ATOMIC_SPECIES
W 183.84 W_ONCV_LDA-4.0.upf
O 15.9994 O_ONCV_LDA-3.0.upf

ATOMIC_POSITIONS crystal
W 0.256070024	0.2741047994881748	-0.993610055	 0 0 0
W 0.7436100136695871	0.7258952005118252	-0.993929976	 0 0 0
W 0.243929993	0.22589521809497587	-0.49360999	 0 0 0
W 0.7563899356695871	0.7741048795658498	-0.493929993	 0 0 0
W 0.7439299346695871	0.2741047994881748	-0.5063900100000001	 0 0 0
W 0.25639001	0.7258952005118252	-0.506070024	 0 0 0
W 0.7560699496695872	0.22589521809497587	-1.006389977	 0 0 0
W 0.24360999	0.7741048795658498	-1.006069991	 0 0 0
O 0.262939997	0.00621178525750558	-0.987129972	 0 0 0
O 0.7371299306695871	0.9937881734963275	-0.987060036	 0 0 0
O 0.237060003	0.49378825357400247	-0.487130004	 0 0 0
O 0.7628699546695872	0.5062118265036725	-0.48706000299999996	 0 0 0
O 0.7370599946695872	0.00621178525750558	-0.512870012	 0 0 0
O 0.262870012	0.9937881734963275	-0.5129399969999999	 0 0 0
O 0.7629399556695872	0.49378825357400247	-1.012869996	 0 0 0
O 0.237130004	0.5062118265036725	-1.0129399970000001	 0 0 0
O 0.497300041	0.265450015	-0.5315780222362705	 0 0 0
O 0.501770019	0.7390600717472622	-0.468421876519753	 0 0 0
O 0.002699971	0.23455	-1.0315780222362705	 0 0 0
O 0.998229981	0.7609400057472622	-0.968422018091952	 0 0 0
O 0.502699959	0.265450015	-0.968422018091952	 0 0 0
O 0.498230014	0.7390600717472622	-1.0315780222362705	 0 0 0
O 0.997300041	0.23455	-0.468421876519753	 0 0 0
O 0.00176999	0.7609400057472622	-0.5315780222362705	 0 0 0
O 0.7184219018501659	0.239060018	-0.25177003133041287	 0 0 0
O 0.2815779809058575	0.7345500237472622	-0.752699959	 0 0 0
O 0.7815781488106599	0.260939997	-0.751770019	 0 0 0
O 0.21842196176372947	0.7654500537472622	-0.2527000123304129	 0 0 0
O 0.2815779809058575	0.239060018	-1.248230022330413	 0 0 0
O 0.7184219018501659	0.7345500237472622	-0.747300041	 0 0 0
O 0.21842196176372947	0.260939997	-0.748230014	 0 0 0
O 0.7815781488106599	0.7654500537472622	-1.2473000823304128	 0 0 0

K_POINTS automatic
6 6 6 0 0 0
