
&CONTROL
    calculation   = 'vc-relax'
    restart_mode  = 'from_scratch'
    prefix        = 'Landau_35'
    pseudo_dir    = '/cluster/scratch/mnoe/QE/pps'
    outdir        = './'
    forc_conv_thr = 1.0d-7
    etot_conv_thr = 1.0d-7

/
&SYSTEM
    ibrav       = 0
    nat         = 32
    ntyp        = 2
    ecutwfc     = 120
    occupations = 'smearing'
    degauss     = 7.35d-4
    tot_charge  = -0.0
/
&ELECTRONS
    conv_thr    = 1.0d-8
    diagonalization = 'david'
/


&IONS
ion_dynamics = 'bfgs'
/

&CELL
cell_dynamics = 'bfgs'
cell_dofree = 'all'
/
CELL_PARAMETERS angstrom
        7.3236460686         0.0000000000         0.0000000000
        0.0000000000         7.7495899200         0.0000000000
        0.0000000000         0.0000000000         7.3236460686

ATOMIC_SPECIES
W 183.84 W_ONCV_LDA-4.0.upf
O 15.9994 O_ONCV_LDA-3.0.upf

ATOMIC_POSITIONS crystal
W 0.25	0.27698112150635434	0.0	 0 0 0
W 0.7499999740655481	0.7230188784936457	0.0	 0 0 0
W 0.25	0.22301889511454884	0.5	 0 0 0
W 0.7499999740655481	0.776981140754355	0.5	 0 0 0
W 0.7499999740655481	0.27698112150635434	0.5	 0 0 0
W 0.25	0.7230188784936457	0.5	 0 0 0
W 0.7499999740655481	0.22301889511454884	0.0	 0 0 0
W 0.25	0.776981140754355	0.0	 0 0 0
O 0.25	0.006990847990878384	0.0	 0 0 0
O 0.7499999740655481	0.9930091409701535	0.0	 0 0 0
O 0.25	0.4930091602181541	0.5	 0 0 0
O 0.7499999740655481	0.5069908590298465	0.5	 0 0 0
O 0.7499999740655481	0.006990847990878384	0.5	 0 0 0
O 0.25	0.9930091409701535	0.5	 0 0 0
O 0.7499999740655481	0.4930091602181541	0.0	 0 0 0
O 0.25	0.5069908590298465	0.0	 0 0 0
O 0.5	0.25	0.46146982920759816	 0 0 0
O 0.5	0.7500000093135487	0.5385301912822089	 0 0 0
O 0.0	0.25	0.9614698622075981	 0 0 0
O 0.0	0.7500000093135487	0.03853014140711089	 0 0 0
O 0.5	0.25	0.03853014140711089	 0 0 0
O 0.5	0.7500000093135487	0.9614698622075981	 0 0 0
O 0.0	0.25	0.5385301912822089	 0 0 0
O 0.0	0.7500000093135487	0.46146982920759816	 0 0 0
O 0.711469834652243	0.25	0.7499999740655481	 0 0 0
O 0.2885301448579498	0.7500000093135487	0.25	 0 0 0
O 0.7885302172166608	0.25	0.25	 0 0 0
O 0.21146984520759818	0.7500000093135487	0.7499999740655481	 0 0 0
O 0.2885301448579498	0.25	0.7499999740655481	 0 0 0
O 0.711469834652243	0.7500000093135487	0.25	 0 0 0
O 0.21146984520759818	0.25	0.25	 0 0 0
O 0.7885302172166608	0.7500000093135487	0.7499999740655481	 0 0 0

K_POINTS automatic
6 6 6 0 0 0
