
&CONTROL
    calculation   = 'vc-relax'
    restart_mode  = 'from_scratch'
    prefix        = 'Landau_37'
    pseudo_dir    = '/cluster/scratch/mnoe/QE/pps'
    outdir        = './'
    forc_conv_thr = 1.0d-7
    etot_conv_thr = 1.0d-7

/
&SYSTEM
    ibrav       = 0
    nat         = 32
    ntyp        = 2
    ecutwfc     = 120
    occupations = 'smearing'
    degauss     = 7.35d-4
    tot_charge  = -0.0
/
&ELECTRONS
    conv_thr    = 1.0d-8
    diagonalization = 'david'
/


&IONS
ion_dynamics = 'bfgs'
/

&CELL
cell_dynamics = 'bfgs'
cell_dofree = 'all'
/
CELL_PARAMETERS angstrom
        7.3236460686         0.0000000000         0.0000000000
        0.0000000000         7.3236460686         0.0000000000
        0.0000000000         0.0000000000         7.7495899200

ATOMIC_SPECIES
W 183.84 W_ONCV_LDA-4.0.upf
O 15.9994 O_ONCV_LDA-3.0.upf

ATOMIC_POSITIONS crystal
W 0.233959996         0.233119999         0.218119991 0 0 0
W 0.766039971         0.766880050         0.218119991 0 0 0
W 0.233119999         0.766039971         0.781880024 0 0 0
W 0.766880050         0.233959996         0.781880024 0 0 0
W 0.266040004         0.733119983         0.281880024 0 0 0
W 0.733960061         0.266880001         0.281880024 0 0 0
W 0.266880001         0.266040004         0.718119976 0 0 0
W 0.733119983         0.733960061         0.718119976 0 0 0
O 0.215809996         0.215980001         0.491670026 0 0 0
O 0.784189987         0.784020031         0.491670026 0 0 0
O 0.215980001         0.784189987         0.508329974 0 0 0
O 0.784020031         0.215809996         0.508329974 0 0 0
O 0.284189987         0.715980001         0.008329987 0 0 0
O 0.715809980         0.284019999         0.008329987 0 0 0
O 0.284019999         0.284189987         0.991670026 0 0 0
O 0.715980001         0.715809980         0.991670026 0 0 0
O 0.199410008         0.495330015         0.278899988 0 0 0
O 0.800589976         0.504670018         0.278899988 0 0 0
O 0.495330015         0.800589976         0.721099950 0 0 0
O 0.504670018         0.199410008         0.721099950 0 0 0
O 0.300589976         0.995329982         0.221099996 0 0 0
O 0.699409992         0.004669994         0.221099996 0 0 0
O 0.004669994         0.300589976         0.778900050 0 0 0
O 0.995329982         0.699409992         0.778900050 0 0 0
O 0.992869981         0.199410008         0.209159993 0 0 0
O 0.007130027         0.800589976         0.209159993 0 0 0
O 0.199410008         0.007130027         0.790840007 0 0 0
O 0.800589976         0.992869981         0.790840007 0 0 0
O 0.507130019         0.699409992         0.290840007 0 0 0
O 0.492869981         0.300589976         0.290840007 0 0 0
O 0.300589976         0.507130019         0.709159993 0 0 0
O 0.699409992         0.492869981         0.709159993 0 0 0

K_POINTS automatic
6 6 6 0 0 0
