&CONTROL
    calculation   = 'scf'
    restart_mode  = 'from_scratch'
    prefix        = 'Landau_19'
    pseudo_dir    = '/cluster/scratch/mnoe/QE/pps'
    outdir        = './'
/
&SYSTEM
    ibrav       = 0
    nat         = 32
    ntyp        = 2
    ecutwfc     = 120
    occupations = 'smearing'
    degauss     = 7.35d-4
    tot_charge  = -0.6
/
&ELECTRONS
    conv_thr    = 1.0d-8
    diagonalization = 'david'
/

CELL_PARAMETERS angstrom
   7.416160406   0.000000000   0.000000000
   0.000000000   7.449034194   0.000000000
   0.000000000   0.000000000   7.416160406

ATOMIC_SPECIES
W 183.84 W_ONCV_LDA-4.0.upf
O 15.9994 O_ONCV_LDA-3.0.upf

ATOMIC_POSITIONS crystal
W 0.21586569058901517	0.2778478544589262	-0.0009774176681721022	
W 0.7509774181671866	0.7221521455410738	-0.03413426196269607	
W 0.28413430941098483	0.22215216187402365	0.49902257568906744	
W 0.7490225610046295	0.7778478647803732	0.46586569058901517	
W 0.7841342624617105	0.2778478544589262	0.5009774243109325	
W 0.2490225756890675	0.7221521455410738	0.5341343094109848	
W 0.7158657167101056	0.22215216187402365	0.0009774394943849046	
W 0.25097742431093256	0.7778478647803732	0.03413428378890887	
O 0.21245889491152092	0.007226971751372097	-0.027235283616124727	
O 0.7772352556461659	-0.007226976743319982	-0.037541058589156004	
O 0.2875410585891561	0.4927730335781269	0.47276466039489445	
O 0.7227646950566768	0.50722697674332	0.4624589100949733	
O 0.7875410306191972	0.007226971751372097	0.5272353234726873	
O 0.22276464521144207	-0.007226976743319982	0.5375410737726084	
O 0.7124589200836456	0.4927730335781269	0.027235276973364333	
O 0.2772353082892349	0.50722697674332	0.037541051946395614	
O 0.5120803286380974	0.2095266124890655	0.4593504966025093	
O 0.5024767797988126	0.7759732277086437	0.5406495143848373	
O -0.012080298271192624	0.29047335904196114	0.9593505296025093	
O -0.0024767655643258514	0.7240268971047124	0.04064948207489345	
O 0.4879196713619025	0.2095266124890655	0.04064948207489345	
O 0.49752322020118744	0.7759732277086437	0.9593505296025093	
O 0.012080281189808657	0.29047335904196114	0.5406495143848373	
O 0.0024767484829418844	0.7240268971047124	0.4593504966025093	
O 0.7093505069423611	0.27597316577644865	0.7475232301898598	
O 0.29064948207029223	0.7904734503920954	0.2620803286380975	
O 0.7906495357120357	0.224026805754578	0.24752328188396297	
O 0.20935051260250934	0.7095266744212606	0.7620803386267697	
O 0.29064948207029223	0.27597316577644865	0.752476805919903	
O 0.7093505069423611	0.7904734503920954	0.23791973304467806	
O 0.20935051260250934	0.224026805754578	0.25247677979881256	
O 0.7906495357120357	0.7095266744212606	0.7379196974829929	

K_POINTS automatic
6 6 6 0 0 0
