&CONTROL
    calculation   = 'scf'
    restart_mode  = 'from_scratch'
    prefix        = 'Landau_16'
    pseudo_dir    = '/cluster/scratch/mnoe/QE/pps'
    outdir        = './'
/
&SYSTEM
    ibrav       = 0
    nat         = 32
    ntyp        = 2
    ecutwfc     = 120
    occupations = 'smearing'
    degauss     = 7.35d-4
    tot_charge  = -0.6
/
&ELECTRONS
    conv_thr    = 1.0d-8
    diagonalization = 'david'
/

CELL_PARAMETERS angstrom
   7.367665231   0.000000000   0.000000000
   0.000000000   7.618278557   0.000000000
   0.000000000   0.000000000   7.403055605

ATOMIC_SPECIES
W 183.84 W_ONCV_LDA-4.0.upf
O 15.9994 O_ONCV_LDA-3.0.upf

ATOMIC_POSITIONS crystal
W 0.2352	0.27867861246552417	0.013980001	
W 0.7647999830888248	0.7213213875344758	0.98602002	
W 0.264800016	0.22132140359142424	0.51397998	
W 0.7351999830888247	0.7786786142309262	0.486019987	
W 0.7647999830888248	0.27867861246552417	0.486019987	
W 0.2352	0.7213213875344758	0.51397998	
W 0.7351999830888247	0.22132140359142424	0.98602002	
W 0.264800016	0.7786786142309262	0.013980001	
O 0.222699997	0.007453294869693725	0.00435	
O 0.7772999700888248	0.9925467059343888	0.995650004	
O 0.277299987	0.4925467076997908	0.504349996	
O 0.7226999960888247	0.5074532940656112	0.495650004	
O 0.7772999700888248	0.007453294869693725	0.495650004	
O 0.222699997	0.9925467059343888	0.504349996	
O 0.7226999960888247	0.4925467076997908	0.995650004	
O 0.277299987	0.5074532940656112	0.00435	
O 0.504050025	0.221990001	0.4573191298186605	
O 0.495949975	0.7780100308542268	0.5426808720606384	
O 0.995949975	0.278010015	0.9573191628186605	
O 0.004050016	0.7219900318542268	0.04268085658678279	
O 0.495949975	0.221990001	0.04268085658678279	
O 0.504050025	0.7780100308542268	0.9573191628186605	
O 0.004050016	0.278010015	0.5426808720606384	
O 0.995949975	0.7219900318542268	0.4573191298186605	
O 0.7073191448505368	0.243880005	0.7438599960888248	
O 0.2926808532701642	0.7561200108542269	0.256139987	
O 0.7926808889718137	0.256119995	0.243860013	
O 0.2073191458186605	0.7438800518542268	0.7561399700888247	
O 0.2926808532701642	0.243880005	0.7561399700888247	
O 0.7073191448505368	0.7561200108542269	0.243860013	
O 0.2073191458186605	0.256119995	0.256139987	
O 0.7926808889718137	0.7438800518542268	0.7438599960888248	

K_POINTS automatic
6 6 6 0 0 0
