&CONTROL
    calculation   = 'scf'
    restart_mode  = 'from_scratch'
    prefix        = 'Landau_13'
    pseudo_dir    = '/cluster/scratch/mnoe/QE/pps'
    outdir        = './'
/
&SYSTEM
    ibrav       = 0
    nat         = 32
    ntyp        = 2
    ecutwfc     = 120
    occupations = 'smearing'
    degauss     = 7.35d-4
    tot_charge  = -0.6
/
&ELECTRONS
    conv_thr    = 1.0d-8
    diagonalization = 'david'
/

CELL_PARAMETERS angstrom
   7.371775111   0.000000000   0.000000000
   0.000000000   7.622016399   0.000000000
   0.000000000   0.000000000   7.382252098

ATOMIC_SPECIES
W 183.84 W_ONCV_LDA-4.0.upf
O 15.9994 O_ONCV_LDA-3.0.upf

ATOMIC_POSITIONS crystal
W 0.22946801089182262	0.2792862134776268	0.0023469686071485637	
W 0.753518002229733	0.7207137865223733	-0.02036401774285147	
W 0.27053198910817744	0.22071380237745933	0.5023469668290305	
W 0.7464819816073184	0.7792862089852961	0.4796359525290304	
W 0.7705319595073183	0.2792862134776268	0.49765303317096954	
W 0.24648198910817742	0.7207137865223733	0.5203640474709695	
W 0.729468024329733	0.22071380237745933	-0.0023469536571485983	
W 0.25351801089182263	0.7792862089852961	0.020364032692851433	
O 0.2251713598201272	0.007618823404672959	-0.0130900219917427	
O 0.7695403311887494	-0.0076188183614812385	-0.020149026541742672	
O 0.2748286137105847	0.4923811771461882	0.48690994503896917	
O 0.7304596380398581	0.5076188183614813	0.47985095738896916	
O 0.7748285912398581	0.007618823404672959	0.5130900413022008	
O 0.23045960721058467	-0.0076188183614812385	0.5201490289522008	
O 0.7251713779887494	0.4923811771461882	0.013090017441742726	
O 0.2695403663201272	0.5076188183614813	0.0201490219917427	
O 0.5070238905049876	0.22352321794539853	0.45583342579412456	
O 0.5004458801049877	0.769036231525912	0.544166569423717	
O -0.007023880303359534	0.2764767625546014	0.9558334587941245	
O -0.00044588095335952463	0.7309638328305069	0.04416656626346438	
O 0.4929761094950123	0.22352321794539853	0.04416656626346438	
O 0.49955411989501225	0.769036231525912	0.9558334587941245	
O 0.00702385800498769	0.2764767625546014	0.544166569423717	
O 0.00044585865498768034	0.7309638328305069	0.45583342579412456	
O 0.7058334442576607	0.2620820400768862	0.7474784728983119	
O 0.2941665605244977	0.7720140871158435	0.25744945231040156	
O 0.7941665831050948	0.23791794531467003	0.24747851276040156	
O 0.20583344179412455	0.7279859774036274	0.7574494546983119	
O 0.2941665605244977	0.2620820400768862	0.752521540155627	
O 0.7058334442576607	0.7720140871158435	0.2425505899395985	
O 0.20583344179412455	0.23791794531467003	0.2525215294895985	
O 0.7941665831050948	0.7279859774036274	0.742550558355627	

K_POINTS automatic
6 6 6 0 0 0
