&CONTROL
    calculation   = 'scf'
    restart_mode  = 'from_scratch'
    prefix        = 'Landau_12'
    pseudo_dir    = '/cluster/scratch/mnoe/QE/pps'
    outdir        = './'
/
&SYSTEM
    ibrav       = 0
    nat         = 32
    ntyp        = 2
    ecutwfc     = 120
    occupations = 'smearing'
    degauss     = 7.35d-4
    tot_charge  = -0.05
/
&ELECTRONS
    conv_thr    = 1.0d-8
    diagonalization = 'david'
/

CELL_PARAMETERS angstrom
   7.326763678   0.000000000   0.000000000
   0.000000000   7.722506237   0.000000000
   0.000000000   0.000000000   7.326763678

ATOMIC_SPECIES
W 183.84 W_ONCV_LDA-4.0.upf
O 15.9994 O_ONCV_LDA-3.0.upf

ATOMIC_POSITIONS crystal
W 0.26078997	0.281860003	0.25031000800000003	
W -0.250309998	0.718139997	-0.739209982	
W 0.23920999800000003	0.218140012	0.7503099820000001	
W 0.750310008	0.781859972	0.76078997	
W 0.7392099919999999	0.281860003	0.7496899859999999	
W 0.25030998200000004	0.718139997	0.739209998	
W -0.23920998199999988	0.218140012	-0.7503099980000001	
W 0.24968998599999997	0.781859972	0.23920999199999993	
O 0.261870013	0.00832	0.25861001799999994	
O -0.2586100069999999	0.991680023	-0.7381299710000001	
O 0.23812997099999994	0.491679992	0.7586100069999999	
O 0.7586100179999999	0.508319977	0.761870029	
O 0.738129982	0.00832	0.7413900090000001	
O 0.25860999099999993	0.991680023	0.738129987	
O -0.238129971	0.491679992	-0.758610007	
O 0.24138999300000002	0.508319977	0.23812998200000002	
O 0.49618001499999986	0.262789981	0.6995400039999999	
O 0.4992199589999998	0.741789967	0.800459963	
O -0.996179999	0.23720997299999996	1.199540037	
O 0.0007801110000000366	0.7582099429999999	0.300460012	
O 0.503819985	0.262789981	0.300460012	
O 0.5007800410000001	0.741789967	1.199540037	
O -0.003819946999999926	0.23720997299999996	0.800459963	
O -1.000780057	0.7582099429999999	0.6995400039999999	
O 0.6995400369999999	0.24178996599999997	2.000780041	
O 0.300459996	0.737209928	0.4961799990000001	
O 0.800459963	0.258209988	0.5007800570000001	
O 0.19954001999999996	0.7627899819999999	1.9961800149999998	
O 0.300459996	0.24178996599999997	0.9992199049999998	
O 0.699540037	0.737209928	0.503820001	
O 0.19954002	0.258209988	0.49921994300000005	
O 0.800459963	0.7627899819999999	1.0038199310000002	

K_POINTS automatic
6 6 6 0 0 0
