
&CONTROL
    calculation   = 'vc-relax'
    restart_mode  = 'from_scratch'
    prefix        = 'Landau_19'
    pseudo_dir    = '/cluster/scratch/mnoe/QE/pps'
    outdir        = './'
    forc_conv_thr = 1.0d-7
    etot_conv_thr = 1.0d-7

/
&SYSTEM
    ibrav       = 0
    nat         = 32
    ntyp        = 2
    ecutwfc     = 120
    occupations = 'smearing'
    degauss     = 7.35d-4
    tot_charge  = -0.0
/
&ELECTRONS
    conv_thr    = 1.0d-8
    diagonalization = 'david'
/


&IONS
ion_dynamics = 'bfgs'
/

&CELL
cell_dynamics = 'bfgs'
cell_dofree = 'all'
/
CELL_PARAMETERS angstrom
        7.3236460686         0.0000000000         0.0000000000
        0.0000000000         7.7495899200         0.0000000000
        0.0000000000         0.0000000000         7.3236460686

ATOMIC_SPECIES
W 183.84 W_ONCV_LDA-4.0.upf
O 15.9994 O_ONCV_LDA-3.0.upf

ATOMIC_POSITIONS crystal
W 0.24341683591929147	0.27439854831616933	0.006216642328277952	 0 0 0
W 0.7565831183687939	0.7256014516838307	-0.006216634143803709	 0 0 0
W 0.2565831640807085	0.2256014691627381	0.506216645886745	 0 0 0
W 0.7434168023061648	0.7743985941623032	0.49378335411325497	 0 0 0
W 0.7565831183687939	0.27439854831616933	0.49378335411325497	 0 0 0
W 0.24341683591929147	0.7256014516838307	0.506216645886745	 0 0 0
W 0.7434168023061648	0.2256014691627381	-0.006216634143803709	 0 0 0
W 0.2565831640807085	0.7743985941623032	0.006216642328277952	 0 0 0
O 0.23785494726185324	0.006287278463947117	0.0019322476193647203	 0 0 0
O 0.7621449956391375	-0.00628730752100547	-0.0019322501102916549	 0 0 0
O 0.26214504704459946	0.4937127383251283	0.5019322383673503	 0 0 0
O 0.7378549250358213	0.5062873075210055	0.4980677498897083	 0 0 0
O 0.7621449956391375	0.006287278463947117	0.4980677498897083	 0 0 0
O 0.23785494726185324	-0.00628730752100547	0.5019322383673503	 0 0 0
O 0.7378549250358213	0.4937127383251283	-0.0019322501102916549	 0 0 0
O 0.26214504704459946	0.5062873075210055	0.0019322476193647203	 0 0 0
O 0.5018005871845241	0.23754180714148965	0.4677847287977733	 0 0 0
O 0.4981994128154758	0.7624582203798241	0.5322153200061754	 0 0 0
O -0.0018005989274655447	0.2624581821831091	0.9677847617977733	 0 0 0
O 0.0018005693921888527	0.7375418453382047	0.03221521779281552	 0 0 0
O 0.4981994128154758	0.23754180714148965	0.03221521779281552	 0 0 0
O 0.5018005871845241	0.7624582203798241	0.9677847617977733	 0 0 0
O 0.0018005693921888527	0.2624581821831091	0.5322153200061754	 0 0 0
O -0.0018005989274655447	0.7375418453382047	0.4677847287977733	 0 0 0
O 0.7177847196563452	0.24728133186971432	0.7472706210761422	 0 0 0
O 0.28221523153970596	0.7527187066828473	0.25272933926133717	 0 0 0
O 0.782215359668696	0.25271866813028565	0.2472706838686988	 0 0 0
O 0.21778474479777332	0.747281359391028	0.7527292995988165	 0 0 0
O 0.28221523153970596	0.24728133186971432	0.7527292995988165	 0 0 0
O 0.7177847196563452	0.7527187066828473	0.2472706838686988	 0 0 0
O 0.21778474479777332	0.25271866813028565	0.25272933926133717	 0 0 0
O 0.782215359668696	0.747281359391028	0.7472706210761422	 0 0 0

K_POINTS automatic
6 6 6 0 0 0
