
&CONTROL
    calculation   = 'vc-relax'
    restart_mode  = 'from_scratch'
    prefix        = 'Landau_5'
    pseudo_dir    = '/cluster/scratch/mnoe/QE/pps'
    outdir        = './'
    forc_conv_thr = 1.0d-7
    etot_conv_thr = 1.0d-7

/
&SYSTEM
    ibrav       = 0
    nat         = 32
    ntyp        = 2
    ecutwfc     = 120
    occupations = 'smearing'
    degauss     = 7.35d-4
    tot_charge  = -0.0
/
&ELECTRONS
    conv_thr    = 1.0d-8
    diagonalization = 'david'
/


&IONS
ion_dynamics = 'bfgs'
/

&CELL
cell_dynamics = 'bfgs'
cell_dofree = 'all'
/
CELL_PARAMETERS angstrom
        7.3236460686         0.0000000000         0.0000000000
        0.0000000000         7.7495899200         0.0000000000
        0.0000000000         0.0000000000         7.3236460686

ATOMIC_SPECIES
W 183.84 W_ONCV_LDA-4.0.upf
O 15.9994 O_ONCV_LDA-3.0.upf

ATOMIC_POSITIONS crystal
0.247690009	0.2823125195203	0.00218	 0 0 0
0.752309975	0.7176874804797	0.997819989	 0 0 0
0.252309975	0.217687494880075	0.502179979	 0 0 0
0.747690025	0.7823124885203	0.497819989	 0 0 0
0.752309975	0.2823125195203	0.497819989	 0 0 0
0.247690009	0.7176874804797	0.502179979	 0 0 0
0.747690025	0.217687494880075	0.997819989	 0 0 0
0.252309975	0.7823124885203	0.00218	 0 0 0
0.245729994	0.009176264539974999	0.00068	 0 0 0
0.754270038	0.99082375953935	0.999319971	 0 0 0
0.254270022	0.490823727300125	0.500680029	 0 0 0
0.745729962	0.5091762429391	0.499320004	 0 0 0
0.754270038	0.009176264539974999	0.499320004	 0 0 0
0.245729994	0.99082375953935	0.500680029	 0 0 0
0.745729962	0.490823727300125	0.999319971	 0 0 0
0.254270022	0.5091762429391	0.00068	 0 0 0
0.500630023	0.245620002	0.451878942849	 0 0 0
0.499369977	0.754379982	0.548121026749375	 0 0 0
0.999369977	0.254379982	0.9518789739302	 0 0 0
0.000630021	0.745619987	0.048121074909899995	 0 0 0
0.499369977	0.245620002	0.048121074909899995	 0 0 0
0.500630023	0.754379982	0.9518789739302	 0 0 0
0.000630021	0.254379982	0.548121026749375	 0 0 0
0.999369977	0.745619987	0.451878942849	 0 0 0
0.701878977168175	0.249039987	0.74903999	 0 0 0
0.2981210590698	0.750960013	0.250959994	 0 0 0
0.7981210254302	0.250959997	0.249040006	 0 0 0
0.201878958888975	0.749040018	0.75096001	 0 0 0
0.2981210590698	0.249039987	0.75096001	 0 0 0
0.701878977168175	0.750960013	0.249040006	 0 0 0
0.201878958888975	0.250959997	0.250959994	 0 0 0
0.7981210254302	0.749040018	0.74903999	 0 0 0

K_POINTS automatic
6 6 6 0 0 0
