
&CONTROL
    calculation   = 'vc-relax'
    restart_mode  = 'from_scratch'
    prefix        = 'Landau_29'
    pseudo_dir    = '/cluster/scratch/mnoe/QE/pps'
    outdir        = './'
    forc_conv_thr = 1.0d-7
    etot_conv_thr = 1.0d-7

/
&SYSTEM
    ibrav       = 0
    nat         = 32
    ntyp        = 2
    ecutwfc     = 120
    occupations = 'smearing'
    degauss     = 7.35d-4
    tot_charge  = -0.0
/
&ELECTRONS
    conv_thr    = 1.0d-8
    diagonalization = 'david'
/


&IONS
ion_dynamics = 'bfgs'
/

&CELL
cell_dynamics = 'bfgs'
cell_dofree = 'all'
/
CELL_PARAMETERS angstrom
        7.3236460686         0.0000000000         0.0000000000
        0.0000000000         7.7495899200         0.0000000000
        0.0000000000         0.0000000000         7.3236460686

ATOMIC_SPECIES
W 183.84 W_ONCV_LDA-4.0.upf
O 15.9994 O_ONCV_LDA-3.0.upf

ATOMIC_POSITIONS crystal
W 0.25	0.2778175011909793	0.0	 0 0 0
W 0.7499999785114541	0.7221824988090207	0.0	 0 0 0
W 0.25	0.22218251515205475	0.5	 0 0 0
W 0.7499999785114541	0.777817511825037	0.5	 0 0 0
W 0.7499999785114541	0.2778175011909793	0.5	 0 0 0
W 0.25	0.7221824988090207	0.5	 0 0 0
W 0.7499999785114541	0.22218251515205475	0.0	 0 0 0
W 0.25	0.777817511825037	0.0	 0 0 0
O 0.25	0.007218702621013519	0.0	 0 0 0
O 0.7499999785114541	0.99278129217527	0.0	 0 0 0
O 0.25	0.4927813028093277	0.5	 0 0 0
O 0.7499999785114541	0.50721870782473	0.5	 0 0 0
O 0.7499999785114541	0.007218702621013519	0.5	 0 0 0
O 0.25	0.99278129217527	0.5	 0 0 0
O 0.7499999785114541	0.4927813028093277	0.0	 0 0 0
O 0.25	0.50721870782473	0.0	 0 0 0
O 0.5	0.25	0.45942471631486703	 0 0 0
O 0.5	0.7500000051455118	0.5405752950052588	 0 0 0
O 0.0	0.25	0.9594247493148671	 0 0 0
O 0.0	0.7500000051455118	0.040575262080177595	 0 0 0
O 0.5	0.25	0.040575262080177595	 0 0 0
O 0.5	0.7500000051455118	0.9594247493148671	 0 0 0
O 0.0	0.25	0.5405752950052588	 0 0 0
O 0.0	0.7500000051455118	0.45942471631486703	 0 0 0
O 0.709424726483287	0.25	0.7499999785114541	 0 0 0
O 0.29057526219658697	0.7500000051455118	0.25	 0 0 0
O 0.7905753164938047	0.25	0.25	 0 0 0
O 0.20942473231486705	0.7500000051455118	0.7499999785114541	 0 0 0
O 0.29057526219658697	0.25	0.7499999785114541	 0 0 0
O 0.709424726483287	0.7500000051455118	0.25	 0 0 0
O 0.20942473231486705	0.25	0.25	 0 0 0
O 0.7905753164938047	0.7500000051455118	0.7499999785114541	 0 0 0

K_POINTS automatic
6 6 6 0 0 0
