
&CONTROL
    calculation   = 'vc-relax'
    restart_mode  = 'from_scratch'
    prefix        = 'Landau_24'
    pseudo_dir    = '/cluster/scratch/mnoe/QE/pps'
    outdir        = './'
    forc_conv_thr = 1.0d-7
    etot_conv_thr = 1.0d-7

/
&SYSTEM
    ibrav       = 0
    nat         = 32
    ntyp        = 2
    ecutwfc     = 120
    occupations = 'smearing'
    degauss     = 7.35d-4
    tot_charge  = -0.0
/
&ELECTRONS
    conv_thr    = 1.0d-8
    diagonalization = 'david'
/


&IONS
ion_dynamics = 'bfgs'
/

&CELL
cell_dynamics = 'bfgs'
cell_dofree = 'all'
/
CELL_PARAMETERS angstrom
        7.3236460686         0.0000000000         0.0000000000
        0.0000000000         7.7495899200         0.0000000000
        0.0000000000         0.0000000000         7.3236460686

ATOMIC_SPECIES
W 183.84 W_ONCV_LDA-4.0.upf
O 15.9994 O_ONCV_LDA-3.0.upf

ATOMIC_POSITIONS crystal
W 0.25	0.2785144842615001	0.0	 0 0 0
W 0.7499999822163758	0.7214855157384998	0.0	 0 0 0
W 0.25	0.22148553184997635	0.5	 0 0 0
W 0.7499999822163758	0.778514487717272	0.5	 0 0 0
W 0.7499999822163758	0.2785144842615001	0.5	 0 0 0
W 0.25	0.7214855157384998	0.5	 0 0 0
W 0.7499999822163758	0.22148553184997635	0.0	 0 0 0
W 0.25	0.778514487717272	0.0	 0 0 0
O 0.25	0.0074085814794594635	0.0	 0 0 0
O 0.7499999822163758	0.9925914181795338	0.0	 0 0 0
O 0.25	0.49259142163530567	0.5	 0 0 0
O 0.7499999822163758	0.5074085818204662	0.5	 0 0 0
O 0.7499999822163758	0.0074085814794594635	0.5	 0 0 0
O 0.25	0.9925914181795338	0.5	 0 0 0
O 0.7499999822163758	0.49259142163530567	0.0	 0 0 0
O 0.25	0.5074085818204662	0.0	 0 0 0
O 0.5	0.25	0.45772045557092444	 0 0 0
O 0.5	0.7500000016721476	0.5422795481078004	 0 0 0
O 0.0	0.25	0.9577204885709245	 0 0 0
O 0.0	0.7500000016721476	0.04227952930773318	 0 0 0
O 0.5	0.25	0.04227952930773318	 0 0 0
O 0.5	0.7500000016721476	0.9577204885709245	 0 0 0
O 0.0	0.25	0.5422795481078004	 0 0 0
O 0.0	0.7500000016721476	0.45772045557092444	 0 0 0
O 0.7077204696758238	0.25	0.7499999822163758	 0 0 0
O 0.2922795266454513	0.7500000016721476	0.25	 0 0 0
O 0.7922795658914246	0.25	0.25	 0 0 0
O 0.20772047157092446	0.7500000016721476	0.7499999822163758	 0 0 0
O 0.2922795266454513	0.25	0.7499999822163758	 0 0 0
O 0.7077204696758238	0.7500000016721476	0.25	 0 0 0
O 0.20772047157092446	0.25	0.25	 0 0 0
O 0.7922795658914246	0.7500000016721476	0.7499999822163758	 0 0 0

K_POINTS automatic
6 6 6 0 0 0
