
&CONTROL
    calculation   = 'vc-relax'
    restart_mode  = 'from_scratch'
    prefix        = 'Landau_14'
    pseudo_dir    = '/cluster/scratch/mnoe/QE/pps'
    outdir        = './'
    forc_conv_thr = 1.0d-7
    etot_conv_thr = 1.0d-7

/
&SYSTEM
    ibrav       = 0
    nat         = 32
    ntyp        = 2
    ecutwfc     = 120
    occupations = 'smearing'
    degauss     = 7.35d-4
    tot_charge  = -0.0
/
&ELECTRONS
    conv_thr    = 1.0d-8
    diagonalization = 'david'
/


&IONS
ion_dynamics = 'bfgs'
/

&CELL
cell_dynamics = 'bfgs'
cell_dofree = 'all'
/
CELL_PARAMETERS angstrom
        7.3236460686         0.0000000000         0.0000000000
        0.0000000000         7.3236460686         0.0000000000
        0.0000000000         0.0000000000         7.7495899200

ATOMIC_SPECIES
W 183.84 W_ONCV_LDA-4.0.upf
O 15.9994 O_ONCV_LDA-3.0.upf

ATOMIC_POSITIONS crystal
W 0.243929993         0.243609990         0.218119991 0 0 0
W 0.756069991         0.756389977         0.218119991 0 0 0
W 0.243609990         0.756069991         0.781880024 0 0 0
W 0.756389977         0.243929993         0.781880024 0 0 0
W 0.256070024         0.743610055         0.281880024 0 0 0
W 0.743929976         0.256390010         0.281880024 0 0 0
W 0.256390010         0.256070024         0.718119976 0 0 0
W 0.743610055         0.743929976         0.718119976 0 0 0
O 0.237060003         0.237130004         0.491670026 0 0 0
O 0.762939997         0.762869996         0.491670026 0 0 0
O 0.237130004         0.762939997         0.508329974 0 0 0
O 0.762869996         0.237060003         0.508329974 0 0 0
O 0.262939997         0.737129972         0.008329987 0 0 0
O 0.737060036         0.262870012         0.008329987 0 0 0
O 0.262870012         0.262939997         0.991670026 0 0 0
O 0.737129972         0.737060036         0.991670026 0 0 0
O 0.199410008         0.498230014         0.260939997 0 0 0
O 0.800589976         0.501770019         0.260939997 0 0 0
O 0.498230014         0.800589976         0.739060033 0 0 0
O 0.501770019         0.199410008         0.739060033 0 0 0
O 0.300589976         0.998229981         0.239060018 0 0 0
O 0.699409992         0.001769990         0.239060018 0 0 0
O 0.001769990         0.300589976         0.760939967 0 0 0
O 0.998229981         0.699409992         0.760939967 0 0 0
O 0.997300041         0.199410008         0.234550000 0 0 0
O 0.002699971         0.800589976         0.234550000 0 0 0
O 0.199410008         0.002699971         0.765450015 0 0 0
O 0.800589976         0.997300041         0.765450015 0 0 0
O 0.502699959         0.699409992         0.265450015 0 0 0
O 0.497300041         0.300589976         0.265450015 0 0 0
O 0.300589976         0.502699959         0.734549985 0 0 0
O 0.699409992         0.497300041         0.734549985 0 0 0

K_POINTS automatic
6 6 6 0 0 0
