
&CONTROL
    calculation   = 'vc-relax'
    restart_mode  = 'from_scratch'
    prefix        = 'Landau_7'
    pseudo_dir    = '/cluster/scratch/mnoe/QE/pps'
    outdir        = './'
    forc_conv_thr = 1.0d-7
    etot_conv_thr = 1.0d-7

/
&SYSTEM
    ibrav       = 0
    nat         = 32
    ntyp        = 2
    ecutwfc     = 120
    occupations = 'smearing'
    degauss     = 7.35d-4
    tot_charge  = -0.0
/
&ELECTRONS
    conv_thr    = 1.0d-8
    diagonalization = 'david'
/


&IONS
ion_dynamics = 'bfgs'
/

&CELL
cell_dynamics = 'bfgs'
cell_dofree = 'all'
/
CELL_PARAMETERS angstrom
        7.3236460686         0.0000000000         0.0000000000
        0.0000000000         7.7495899200         0.0000000000
        0.0000000000         0.0000000000         7.3236460686

ATOMIC_SPECIES
W 183.84 W_ONCV_LDA-4.0.upf
O 15.9994 O_ONCV_LDA-3.0.upf

ATOMIC_POSITIONS crystal
W 0.246759999	0.28116407382058345	0.00306	 0 0 0
W 0.7532399643006804	0.7188359261794166	0.996940001	 0 0 0
W 0.253239984	0.21883594141062404	0.503059999	 0 0 0
W 0.7467600283006803	0.7811640499880151	0.496940001	 0 0 0
W 0.7532399643006804	0.28116407382058345	0.496940001	 0 0 0
W 0.246759999	0.7188359261794166	0.503059999	 0 0 0
W 0.7467600283006803	0.21883594141062404	0.996940001	 0 0 0
W 0.253239984	0.7811640499880151	0.00306	 0 0 0
O 0.244030004	0.008130408252745502	0.00095	 0 0 0
O 0.7559699763006804	0.9918696098918975	0.999050017	 0 0 0
O 0.255969996	0.49186958605932923	0.500949983	 0 0 0
O 0.7440300163006803	0.5081303901081025	0.499049985	 0 0 0
O 0.7559699763006804	0.008130408252745502	0.499049985	 0 0 0
O 0.244030004	0.9918696098918975	0.500949983	 0 0 0
O 0.7440300163006803	0.49186958605932923	0.999050017	 0 0 0
O 0.255969996	0.5081303901081025	0.00095	 0 0 0
O 0.500879987	0.243870006	0.45124168777283197	 0 0 0
O 0.499120013	0.7561299664681121	0.5487582868570147	 0 0 0
O 0.999120013	0.256129978	0.951241720772832	 0 0 0
O 0.000880003	0.7438700094681121	0.04875832175335874	 0 0 0
O 0.499120013	0.243870006	0.04875832175335874	 0 0 0
O 0.500879987	0.7561299664681121	0.951241720772832	 0 0 0
O 0.000880003	0.256129978	0.5487582868570147	 0 0 0
O 0.999120013	0.7438700094681121	0.45124168777283197	 0 0 0
O 0.701241716842305	0.248659994	0.7486599933006803	 0 0 0
O 0.2987583085278484	0.7513400404681121	0.25133997	 0 0 0
O 0.7987582905563342	0.251340006	0.248660095	 0 0 0
O 0.201241703772832	0.7486599974681122	0.7513399993006804	 0 0 0
O 0.2987583085278484	0.248659994	0.7513399993006804	 0 0 0
O 0.701241716842305	0.7513400404681121	0.248660095	 0 0 0
O 0.201241703772832	0.251340006	0.25133997	 0 0 0
O 0.7987582905563342	0.7486599974681122	0.7486599933006803	 0 0 0

K_POINTS automatic
6 6 6 0 0 0
