
&CONTROL
    calculation   = 'vc-relax'
    restart_mode  = 'from_scratch'
    prefix        = 'Landau_12'
    pseudo_dir    = '/cluster/scratch/mnoe/QE/pps'
    outdir        = './'
    forc_conv_thr = 1.0d-7
    etot_conv_thr = 1.0d-7

/
&SYSTEM
    ibrav       = 0
    nat         = 32
    ntyp        = 2
    ecutwfc     = 120
    occupations = 'smearing'
    degauss     = 7.35d-4
    tot_charge  = -0.0
/
&ELECTRONS
    conv_thr    = 1.0d-8
    diagonalization = 'david'
/


&IONS
ion_dynamics = 'bfgs'
/

&CELL
cell_dynamics = 'bfgs'
cell_dofree = 'all'
/
CELL_PARAMETERS angstrom
        7.3236460686         0.0000000000         0.0000000000
        0.0000000000         7.7495899200         0.0000000000
        0.0000000000         0.0000000000         7.3236460686

ATOMIC_SPECIES
W 183.84 W_ONCV_LDA-4.0.upf
O 15.9994 O_ONCV_LDA-3.0.upf

ATOMIC_POSITIONS crystal
W 0.244450008	0.28126571796389	0.00524	 0 0 0
W 0.7555500048409857	0.71873428203611	0.99475999	 0 0 0
W 0.255549992	0.21873429723354842	0.50524001	 0 0 0
W 0.7444499888409856	0.7812656930844802	0.494760022	 0 0 0
W 0.7555500048409857	0.28126571796389	0.494760022	 0 0 0
W 0.244450008	0.71873428203611	0.50524001	 0 0 0
W 0.7444499888409856	0.21873429723354842	0.99475999	 0 0 0
W 0.255549992	0.7812656930844802	0.00524	 0 0 0
O 0.239759998	0.008158099131785562	0.00163	 0 0 0
O 0.7602400148409856	0.9918419197220081	0.998369989	 0 0 0
O 0.260240018	0.49184189484259844	0.501630011	 0 0 0
O 0.7397599788409857	0.5081580802779919	0.498369989	 0 0 0
O 0.7602400148409856	0.008158099131785562	0.498369989	 0 0 0
O 0.239759998	0.9918419197220081	0.501630011	 0 0 0
O 0.7397599788409857	0.49184189484259844	0.998369989	 0 0 0
O 0.260240018	0.5081580802779919	0.00163	 0 0 0
O 0.501519972	0.239500008	0.45099314784321853	 0 0 0
O 0.498480028	0.7604999949615759	0.5490068256722486	 0 0 0
O 0.998480028	0.260500023	0.9509931808432186	 0 0 0
O 0.001519918	0.739499979961576	0.049006862628506315	 0 0 0
O 0.498480028	0.239500008	0.049006862628506315	 0 0 0
O 0.501519972	0.7604999949615759	0.9509931808432186	 0 0 0
O 0.001519918	0.260500023	0.5490068256722486	 0 0 0
O 0.998480028	0.739499979961576	0.45099314784321853	 0 0 0
O 0.7009931774867658	0.247710011	0.7476999838409856	 0 0 0
O 0.2990068489977671	0.752290037961576	0.252300029	 0 0 0
O 0.799006828831263	0.252290004	0.247699971	 0 0 0
O 0.20099316384321855	0.747709998961576	0.7523000098409857	 0 0 0
O 0.2990068489977671	0.247710011	0.7523000098409857	 0 0 0
O 0.7009931774867658	0.752290037961576	0.247699971	 0 0 0
O 0.20099316384321855	0.252290004	0.252300029	 0 0 0
O 0.799006828831263	0.747709998961576	0.7476999838409856	 0 0 0

K_POINTS automatic
6 6 6 0 0 0
