&CONTROL
    calculation   = 'scf'
    restart_mode  = 'from_scratch'
    prefix        = 'Landau_10'
    pseudo_dir    = '/cluster/scratch/mnoe/QE/pps'
    outdir        = './'
/
&SYSTEM
    ibrav       = 0
    nat         = 32
    ntyp        = 2
    ecutwfc     = 120
    occupations = 'smearing'
    degauss     = 7.35d-4
    tot_charge  = -0.2
/
&ELECTRONS
    conv_thr    = 1.0d-8
    diagonalization = 'david'
/

CELL_PARAMETERS angstrom
   7.367227678   0.000000000   0.000000000
   0.000000000   7.650390934   0.000000000
   0.000000000   0.000000000   7.367227678

ATOMIC_SPECIES
W 183.84 W_ONCV_LDA-4.0.upf
O 15.9994 O_ONCV_LDA-3.0.upf

ATOMIC_POSITIONS crystal
W 0.2320345739942185	0.2797483458731191	-0.00051443035166953	
W 0.7505144306143087	0.720251654126881	-0.017965401032997933	
W 0.2679654260057815	0.2202516698284335	0.4994855661521408	
W 0.7494855584234892	0.779748336621249	0.4820345739942185	
W 0.7679654012956371	0.2797483458731191	0.5005144338478592	
W 0.2494855661521408	0.720251654126881	0.5179654260057815	
W 0.7320345877421608	0.2202516698284335	0.0005144418391499518	
W 0.2505144338478592	0.779748336621249	0.017965412520478355	
O 0.23024152363764258	0.007744721974406367	-0.014334359797960387	
O 0.7643343450769294	-0.007744713707010507	-0.01975845188902948	
O 0.2697584518890295	0.49225527704111943	0.485665610734155	
O 0.7356656289771983	0.5077447137070105	0.48024153162893335	
O 0.7697584371679985	0.007744721974406367	0.5143343807750986	
O 0.23566560274286424	-0.007744713707010507	0.5197584598803202	
O 0.7302415368861292	0.49225527704111943	0.014334356301770705	
O 0.26433437278380784	0.5077447137070105	0.019758448392839797	
O 0.5063580677042618	0.22869821709950816	0.4547034211592154	
O 0.5013035683151644	0.7636701127413914	0.5452965689920196	
O -0.006358051721680329	0.27130176791682165	0.9547034541592154	
O -0.0013035608233293956	0.7363299387393223	0.04529657519731234	
O 0.49364193229573816	0.22869821709950816	0.04529657519731234	
O 0.4986964316848355	0.7636701127413914	0.9547034541592154	
O 0.006358042731478241	0.27130176791682165	0.5452965689920196	
O 0.0013035518331273076	0.7363299387393223	0.4547034211592154	
O 0.7047034422328217	0.26367008725076246	0.7486964369420315	
O 0.29529656761594325	0.7713018088905765	0.25635806770426184	
O 0.7952965802168609	0.23632989776556737	0.2486964641494542	
O 0.20470343715921546	0.7286982425901372	0.7563580729614577	
O 0.29529656761594325	0.26367008725076246	0.7513035820631068	
O 0.7047034422328217	0.7713018088905765	0.24364196476035688	
O 0.20470343715921546	0.23632989776556737	0.2513035683151645	
O 0.7952965802168609	0.7286982425901372	0.7436419460436805	

K_POINTS automatic
6 6 6 0 0 0
