
&CONTROL
    calculation   = 'vc-relax'
    restart_mode  = 'from_scratch'
    prefix        = 'Landau_13'
    pseudo_dir    = '/cluster/scratch/mnoe/QE/pps'
    outdir        = './'
    forc_conv_thr = 1.0d-7
    etot_conv_thr = 1.0d-7

/
&SYSTEM
    ibrav       = 0
    nat         = 32
    ntyp        = 2
    ecutwfc     = 120
    occupations = 'smearing'
    degauss     = 7.35d-4
    tot_charge  = -0.0
/
&ELECTRONS
    conv_thr    = 1.0d-8
    diagonalization = 'david'
/


&IONS
ion_dynamics = 'bfgs'
/

&CELL
cell_dynamics = 'bfgs'
cell_dofree = 'all'
/
CELL_PARAMETERS angstrom
        7.3236460686         0.0000000000         0.0000000000
        0.0000000000         7.7495899200         0.0000000000
        0.0000000000         0.0000000000         7.3236460686

ATOMIC_SPECIES
W 183.84 W_ONCV_LDA-4.0.upf
O 15.9994 O_ONCV_LDA-3.0.upf

ATOMIC_POSITIONS crystal
W 0.25	0.2800478470166459	0.0	 0 0 0
W 0.7499999903672036	0.7199521529833541	0.0	 0 0 0
W 0.25	0.21995216858540384	0.5	 0 0 0
W 0.7499999903672036	0.780047834680189	0.5	 0 0 0
W 0.7499999903672036	0.2800478470166459	0.5	 0 0 0
W 0.25	0.7199521529833541	0.5	 0 0 0
W 0.7499999903672036	0.21995216858540384	0.0	 0 0 0
W 0.25	0.780047834680189	0.0	 0 0 0
O 0.25	0.007826314968040543	0.0	 0 0 0
O 0.7499999903672036	0.9921736953889142	0.0	 0 0 0
O 0.25	0.49217368305245723	0.5	 0 0 0
O 0.7499999903672036	0.5078263046110858	0.5	 0 0 0
O 0.7499999903672036	0.007826314968040543	0.5	 0 0 0
O 0.25	0.9921736953889142	0.5	 0 0 0
O 0.7499999903672036	0.49217368305245723	0.0	 0 0 0
O 0.25	0.5078263046110858	0.0	 0 0 0
O 0.5	0.25	0.45397108193425073	 0 0 0
O 0.5	0.7499999940307467	0.5460289049333918	 0 0 0
O 0.0	0.25	0.9539711149342508	 0 0 0
O 0.0	0.7499999940307467	0.046028917208355474	 0 0 0
O 0.5	0.25	0.046028917208355474	 0 0 0
O 0.5	0.7499999940307467	0.9539711149342508	 0 0 0
O 0.0	0.25	0.5460289049333918	 0 0 0
O 0.0	0.7499999940307467	0.45397108193425073	 0 0 0
O 0.7039711046994046	0.25	0.7499999903672036	 0 0 0
O 0.2960289084329528	0.7499999940307467	0.25	 0 0 0
O 0.7960289145661883	0.25	0.25	 0 0 0
O 0.20397109793425075	0.7499999940307467	0.7499999903672036	 0 0 0
O 0.2960289084329528	0.25	0.7499999903672036	 0 0 0
O 0.7039711046994046	0.7499999940307467	0.25	 0 0 0
O 0.20397109793425075	0.25	0.25	 0 0 0
O 0.7960289145661883	0.7499999940307467	0.7499999903672036	 0 0 0

K_POINTS automatic
6 6 6 0 0 0
