&CONTROL
    calculation   = 'scf'
    restart_mode  = 'from_scratch'
    prefix        = 'Landau_27'
    pseudo_dir    = '/cluster/scratch/mnoe/QE/pps'
    outdir        = './'
/
&SYSTEM
    ibrav       = 0
    nat         = 16
    ntyp        = 2
    ecutwfc     = 120
    occupations = 'smearing'
    degauss     = 7.35d-4
    tot_charge  = -0.34
/
&ELECTRONS
    conv_thr    = 1.0d-8
    diagonalization = 'david'
/

CELL_PARAMETERS angstrom
   5.253009479   0.000000000   0.000000000
   0.000000000   5.253009479   0.000000000
   0.000000000   0.000000000   7.642025963

ATOMIC_SPECIES
W 183.84 W_ONCV_LDA-4.0.upf
O 15.9994 O_ONCV_LDA-3.0.upf

ATOMIC_POSITIONS crystal
W       0.2499999999999312	0.2499999999998775	0.2089535910478091	
W       0.7500000229999396	0.7500000229999773	0.7910464239495807	
W       0.7500000230000201	0.7500000230000522	0.2910464239521894	
W       0.24999999999991865	0.2500000000000387	0.7089535760504195	
O      0.24999999999970787	0.24999999999990746	0.4743234189097607	
O      0.7500000229999919	0.7500000230003483	0.5256765810942521	
O      0.7500000229998616	0.7500000230000204	0.025676594090244795	
O      0.24999999999975003	0.2500000000000581	0.9743234189057388	
O       0.4968061335112839	0.5031938204886381	0.25000000000004524	
O       0.5031938665175361	0.49680617948249656	0.7499999999999984	
O       0.0031938494890042593	0.9968061795108467	0.2500000000000044	
O       0.9968060874828581	0.0031938835172499527	0.7500000000002205	
O       0.9968061795110208	0.49680613351098063	0.2500000000001696	
O       0.003193883517514623	0.5031938665175103	0.7499999999999732	
O       0.5031938204888503	0.003193849488904818	0.24999999999987202	
O       0.4968061794828768	0.996806087482806	0.7499999999997248	

K_POINTS automatic
6 6 6 0 0 0
