
&CONTROL
    calculation   = 'vc-relax'
    restart_mode  = 'from_scratch'
    prefix        = 'Landau_22'
    pseudo_dir    = '/cluster/scratch/mnoe/QE/pps'
    outdir        = './'
    forc_conv_thr = 1.0d-7
    etot_conv_thr = 1.0d-7

/
&SYSTEM
    ibrav       = 0
    nat         = 32
    ntyp        = 2
    ecutwfc     = 120
    occupations = 'smearing'
    degauss     = 7.35d-4
    tot_charge  = -0.0
/
&ELECTRONS
    conv_thr    = 1.0d-8
    diagonalization = 'david'
/


&IONS
ion_dynamics = 'bfgs'
/

&CELL
cell_dynamics = 'bfgs'
cell_dofree = 'all'
/
CELL_PARAMETERS angstrom
        7.3236460686         0.0000000000         0.0000000000
        0.0000000000         7.3236460686         0.0000000000
        0.0000000000         0.0000000000         7.7495899200

ATOMIC_SPECIES
W 183.84 W_ONCV_LDA-4.0.upf
O 15.9994 O_ONCV_LDA-3.0.upf

ATOMIC_POSITIONS crystal
W 0.240459989         0.239960002         0.218119991 0 0 0
W 0.759540027         0.760039998         0.218119991 0 0 0
W 0.239960002         0.759540027         0.781880024 0 0 0
W 0.760039998         0.240459989         0.781880024 0 0 0
W 0.259540027         0.739960035         0.281880024 0 0 0
W 0.740460006         0.260039981         0.281880024 0 0 0
W 0.260039981         0.259540027         0.718119976 0 0 0
W 0.739960035         0.740460006         0.718119976 0 0 0
O 0.229670003         0.229770007         0.491670026 0 0 0
O 0.770330029         0.770230009         0.491670026 0 0 0
O 0.229770007         0.770330029         0.508329974 0 0 0
O 0.770230009         0.229670003         0.508329974 0 0 0
O 0.270330013         0.729770023         0.008329987 0 0 0
O 0.729670003         0.270229993         0.008329987 0 0 0
O 0.270229993         0.270330013         0.991670026 0 0 0
O 0.729770023         0.729670003         0.991670026 0 0 0
O 0.199410008         0.497220012         0.267190000 0 0 0
O 0.800589976         0.502779955         0.267190000 0 0 0
O 0.497220012         0.800589976         0.732810030 0 0 0
O 0.502779955         0.199410008         0.732810030 0 0 0
O 0.300589976         0.997220012         0.232809984 0 0 0
O 0.699409992         0.002779991         0.232809984 0 0 0
O 0.002779991         0.300589976         0.767189970 0 0 0
O 0.997220012         0.699409992         0.767189970 0 0 0
O 0.995760017         0.199410008         0.225720000 0 0 0
O 0.004239976         0.800589976         0.225720000 0 0 0
O 0.199410008         0.004239976         0.774279985 0 0 0
O 0.800589976         0.995760017         0.774279985 0 0 0
O 0.504239983         0.699409992         0.274280015 0 0 0
O 0.495759952         0.300589976         0.274280015 0 0 0
O 0.300589976         0.504239983         0.725720015 0 0 0
O 0.699409992         0.495759952         0.725720015 0 0 0

K_POINTS automatic
6 6 6 0 0 0
