
&CONTROL
    calculation   = 'vc-relax'
    restart_mode  = 'from_scratch'
    prefix        = 'Landau_8'
    pseudo_dir    = '/cluster/scratch/mnoe/QE/pps'
    outdir        = './'
    forc_conv_thr = 1.0d-7
    etot_conv_thr = 1.0d-7

/
&SYSTEM
    ibrav       = 0
    nat         = 32
    ntyp        = 2
    ecutwfc     = 120
    occupations = 'smearing'
    degauss     = 7.35d-4
    tot_charge  = -0.0
/
&ELECTRONS
    conv_thr    = 1.0d-8
    diagonalization = 'david'
/


&IONS
ion_dynamics = 'bfgs'
/

&CELL
cell_dynamics = 'bfgs'
cell_dofree = 'all'
/
CELL_PARAMETERS angstrom
        7.3236460686         0.0000000000         0.0000000000
        0.0000000000         7.7495899200         0.0000000000
        0.0000000000         0.0000000000         7.3236460686

ATOMIC_SPECIES
W 183.84 W_ONCV_LDA-4.0.upf
O 15.9994 O_ONCV_LDA-3.0.upf

ATOMIC_POSITIONS crystal
W 0.23910995318638875	0.2779433938045577	0.003292192382419923	 0 0 0
W 0.753909932159573	0.7220566061954423	-0.010683799217580097	 0 0 0
W 0.2608900468136113	0.22205662249665128	0.5032921929862689	 0 0 0
W 0.7460900307965311	0.777943403142037	0.4893161841862689	 0 0 0
W 0.7608900171965312	0.2779433938045577	0.4967078070137311	 0 0 0
W 0.24609004681361124	0.7220566061954423	0.5106838158137311	 0 0 0
W 0.739109945759573	0.22205662249665128	-0.003292183182419946	 0 0 0
W 0.25390995318638876	0.777943403142037	0.010683808417580074	 0 0 0
O 0.23526322280825732	0.007252999502478908	-0.004646265432509825	 0 0 0
O 0.7625671927889132	-0.007253003827868125	-0.008990268232509807	 0 0 0
O 0.2647367641992142	0.4927470055096112	0.4953537175749617	 0 0 0
O 0.7374327641739834	0.5072530038278681	0.4910097251749617	 0 0 0
O 0.7647367353739833	0.007252999502478908	0.5046462724214157	 0 0 0
O 0.23743276019921422	-0.007253003827868125	0.5089902648214157	 0 0 0
O 0.7352632215889131	0.4927470055096112	0.004646262632509841	 0 0 0
O 0.26256722680825734	0.5072530038278681	0.008990265432509824	 0 0 0
O 0.5035562638379436	0.2344697305724712	0.459116884104375	 0 0 0
O 0.4995082574379437	0.7624777432872102	0.5408831258355222	 0 0 0
O -0.003556264052660323	0.2655302574275288	0.9591169171043751	 0 0 0
O 0.0004917355473396821	0.7375223019352491	0.040883095461772635	 0 0 0
O 0.49644373616205634	0.2344697305724712	0.040883095461772635	 0 0 0
O 0.5004917425620563	0.7624777432872102	0.9591169171043751	 0 0 0
O 0.0035562438379436673	0.2655302574275288	0.5408831258355222	 0 0 0
O -0.0004917557620563384	0.7375223019352491	0.459116884104375	 0 0 0
O 0.7091168949838219	0.2539380679905174	0.7479428473364259	 0 0 0
O 0.29088309507628074	0.7600500982984641	0.2540788503632417	 0 0 0
O 0.7908831466548665	0.24606192601627488	0.24794288756324165	 0 0 0
O 0.20911690010437506	0.7399499471242216	0.754078836136426	 0 0 0
O 0.29088309507628074	0.2539380679905174	0.7520571276060937	 0 0 0
O 0.7091168949838219	0.7600500982984641	0.24592117563675836	 0 0 0
O 0.20911690010437506	0.24606192601627488	0.25205713843675837	 0 0 0
O 0.7908831466548665	0.7399499471242216	0.7459211388060937	 0 0 0

K_POINTS automatic
6 6 6 0 0 0
