&CONTROL
    calculation   = 'scf'
    restart_mode  = 'from_scratch'
    prefix        = 'Landau_2'
    pseudo_dir    = '/cluster/scratch/mnoe/QE/pps'
    outdir        = './'
/
&SYSTEM
    ibrav       = 0
    nat         = 32
    ntyp        = 2
    ecutwfc     = 120
    occupations = 'smearing'
    degauss     = 7.35d-4
    tot_charge  = -1.0
/
&ELECTRONS
    conv_thr    = 1.0d-8
    diagonalization = 'david'
/

CELL_PARAMETERS angstrom
   7.350069780   0.000000000   0.000000000
   0.000000000   7.729450445   0.000000000
   0.000000000   0.000000000   7.349904722

ATOMIC_SPECIES
W 183.84 W_ONCV_LDA-4.0.upf
O 15.9994 O_ONCV_LDA-3.0.upf

ATOMIC_POSITIONS crystal
W 0.24849136162697677	0.28030999705674087	-0.0006723298897021708	
W 0.7494150922049905	0.7196900029432591	-0.0015446369335083583	
W 0.25150863837302323	0.21969001845821517	0.499327669341349	
W 0.7505848926945313	0.7803099820203793	0.4984553612240103	
W 0.7515086291101253	0.28030999705674087	0.500672330658651	
W 0.2505849011085896	0.7196900029432591	0.5015446387759898	
W 0.7484913557893964	0.21969001845821517	0.0006723304639172257	
W 0.2494150988914104	0.7803099820203793	0.0015446375077234132	
O 0.24882255880020027	0.007897732413399148	-0.001909437666149032	
O 0.7505267204102081	-0.007897720227476715	-0.0021805672109574147	
O 0.2511774388230487	0.49210226473616164	0.4980905597074412	
O 0.749473262691771	0.5078977202274767	0.4978194308117455	
O 0.7511774313177482	0.007897732413399148	0.5019094404273745	
O 0.24947326814986998	-0.007897720227476715	0.5021805693230702	
O 0.7488225517842308	0.49210226473616164	0.001909437491387929	
O 0.250526729473379	0.5078977202274767	0.0021805670361963116	
O 0.5005858984452447	0.24866817073646483	0.4533300735062799	
O 0.5003332434210321	0.7504162750423943	0.5466699104872705	
O -0.0005858953744424653	0.251331828514559	0.9533301065062799	
O -0.00033324077464973005	0.7495837155592439	0.04666992807494998	
O 0.4994141015547553	0.24866817073646483	0.04666992807494998	
O 0.4996667565789678	0.7504162750423943	0.9533301065062799	
O 0.0005858971969511231	0.251331828514559	0.5466699104872705	
O 0.0003332425971583878	0.7495837155592439	0.4533300735062799	
O 0.7033300977520266	0.2519069913602141	0.7501116918782472	
O 0.2966699182544229	0.7522884663537751	0.25049467391786273	
O 0.7966699187265678	0.2480930068422431	0.25011169976302905	
O 0.2033300895062799	0.7477115242129109	0.7504946676558626	
O 0.2966699182544229	0.2519069913602141	0.74988829661636	
O 0.7033300977520266	0.7522884663537751	0.24950532770491893	
O 0.2033300895062799	0.2480930068422431	0.2498883018597526	
O 0.7966699187265678	0.7477115242129109	0.7495053208387447	

K_POINTS automatic
6 6 6 0 0 0
