&CONTROL
    calculation   = 'scf'
    restart_mode  = 'from_scratch'
    prefix        = 'Landau_39'
    pseudo_dir    = '/cluster/scratch/mnoe/QE/pps'
    outdir        = './'
/
&SYSTEM
    ibrav       = 0
    nat         = 16
    ntyp        = 2
    ecutwfc     = 120
    occupations = 'smearing'
    degauss     = 7.35d-4
    tot_charge  = -0.075
/
&ELECTRONS
    conv_thr    = 1.0d-8
    diagonalization = 'david'
/

CELL_PARAMETERS angstrom
   5.230687212   0.000000000   0.000000000
   0.000000000   5.230687212   0.000000000
   0.000000000   0.000000000   7.609666452

ATOMIC_SPECIES
W 183.84 W_ONCV_LDA-4.0.upf
O 15.9994 O_ONCV_LDA-3.0.upf

ATOMIC_POSITIONS crystal
W      0.24999999999990064	0.24999999999982303	0.20487963551350202	
W      0.7500000229999129	0.7500000229999672	0.7951203794827276	
W      0.750000023000029	0.7500000230000754	0.2951203794864958	
W      0.24999999999988248	0.2500000000000559	0.7048796205172727	
O     0.24999999999957803	0.24999999999986633	0.46661381575854327	
O     0.7500000229999884	0.7500000230005031	0.533386184247253	
O     0.7500000229998001	0.7500000230000295	0.0333861972414647	
O     0.24999999999963896	0.25000000000008393	0.9666138157527339	
O      0.5178710924051878	0.4821288615946996	0.25000000000006534	
O      0.4821289076364409	0.5178711383636061	0.7499999999999978	
O      -0.017871109404771622	1.0178711384045562	0.2500000000000064	
O      1.0178710463641285	-0.017871075363972297	0.7500000000003185	
O      1.0178711384048078	0.5178710924047498	0.2500000000002449	
O      -0.01787107536358999	0.48212890763640376	0.7499999999999615	
O      0.48212886159500595	-0.017871109404915257	0.24999999999981515	
O      0.5178711383641553	1.017871046364053	0.7499999999996024	

K_POINTS automatic
6 6 6 0 0 0
