
&CONTROL
    calculation   = 'vc-relax'
    restart_mode  = 'from_scratch'
    prefix        = 'Landau_9'
    pseudo_dir    = '/cluster/scratch/mnoe/QE/pps'
    outdir        = './'
    forc_conv_thr = 1.0d-7
    etot_conv_thr = 1.0d-7

/
&SYSTEM
    ibrav       = 0
    nat         = 32
    ntyp        = 2
    ecutwfc     = 120
    occupations = 'smearing'
    degauss     = 7.35d-4
    tot_charge  = -0.0
/
&ELECTRONS
    conv_thr    = 1.0d-8
    diagonalization = 'david'
/


&IONS
ion_dynamics = 'bfgs'
/

&CELL
cell_dynamics = 'bfgs'
cell_dofree = 'all'
/
CELL_PARAMETERS angstrom
        7.3236460686         0.0000000000         0.0000000000
        0.0000000000         7.7495899200         0.0000000000
        0.0000000000         0.0000000000         7.3236460686

ATOMIC_SPECIES
W 183.84 W_ONCV_LDA-4.0.upf
O 15.9994 O_ONCV_LDA-3.0.upf

ATOMIC_POSITIONS crystal
W 0.245840001	0.2809652369121787	0.00393	 0 0 0
W 0.7541599942437319	0.7190347630878213	0.996070041	 0 0 0
W 0.254159983	0.21903477838508806	0.503929959	 0 0 0
W 0.745839996243732	0.780965215127448	0.496070009	 0 0 0
W 0.7541599942437319	0.2809652369121787	0.496070009	 0 0 0
W 0.245840001	0.7190347630878213	0.503929959	 0 0 0
W 0.745839996243732	0.21903477838508806	0.996070041	 0 0 0
W 0.254159983	0.780965215127448	0.00393	 0 0 0
O 0.242320003	0.008076239182101359	0.00122	 0 0 0
O 0.7576800092437319	0.9919237775752968	0.998779998	 0 0 0
O 0.257679997	0.4919237557905662	0.501220002	 0 0 0
O 0.742319981243732	0.5080762224247032	0.498779998	 0 0 0
O 0.7576800092437319	0.008076239182101359	0.498779998	 0 0 0
O 0.242320003	0.9919237775752968	0.501220002	 0 0 0
O 0.742319981243732	0.4919237557905662	0.998779998	 0 0 0
O 0.257679997	0.5080762224247032	0.00122	 0 0 0
O 0.501140012	0.242119995	0.45172788313649825	 0 0 0
O 0.498859988	0.7578799484590013	0.5482720936733045	 0 0 0
O 0.998860021	0.257880005	0.9517279161364983	 0 0 0
O 0.001139998	0.7421200294590012	0.04827212454003266	 0 0 0
O 0.498859988	0.242119995	0.04827212454003266	 0 0 0
O 0.501140012	0.7578799484590013	0.9517279161364983	 0 0 0
O 0.001139998	0.257880005	0.5482720936733045	 0 0 0
O 0.998860021	0.7421200294590012	0.45172788313649825	 0 0 0
O 0.7017279110829635	0.248280001	0.7482699722437319	 0 0 0
O 0.2982721121072337	0.7517200034590013	0.251730023	 0 0 0
O 0.7982720984295726	0.251720015	0.248270042	 0 0 0
O 0.20172789913649827	0.7482799744590013	0.751730018243732	 0 0 0
O 0.2982721121072337	0.248280001	0.751730018243732	 0 0 0
O 0.7017279110829635	0.7517200034590013	0.248270042	 0 0 0
O 0.20172789913649827	0.251720015	0.251730023	 0 0 0
O 0.7982720984295726	0.7482799744590013	0.7482699722437319	 0 0 0

K_POINTS automatic
6 6 6 0 0 0
