
&CONTROL
    calculation   = 'vc-relax'
    restart_mode  = 'from_scratch'
    prefix        = 'Landau_9'
    pseudo_dir    = '/cluster/scratch/mnoe/QE/pps'
    outdir        = './'
    forc_conv_thr = 1.0d-7
    etot_conv_thr = 1.0d-7

/
&SYSTEM
    ibrav       = 0
    nat         = 32
    ntyp        = 2
    ecutwfc     = 120
    occupations = 'smearing'
    degauss     = 7.35d-4
    tot_charge  = -0.0
/
&ELECTRONS
    conv_thr    = 1.0d-8
    diagonalization = 'david'
/


&IONS
ion_dynamics = 'bfgs'
/

&CELL
cell_dynamics = 'bfgs'
cell_dofree = 'all'
/
CELL_PARAMETERS angstrom
        7.3236460686         0.0000000000         0.0000000000
        0.0000000000         7.7495899200         0.0000000000
        0.0000000000         0.0000000000         7.3236460686

ATOMIC_SPECIES
W 183.84 W_ONCV_LDA-4.0.upf
O 15.9994 O_ONCV_LDA-3.0.upf

ATOMIC_POSITIONS crystal
W 0.245840001	0.28267453273654003	0.00393	 0 0 0
W 0.754159999	0.71732546726346	0.996070041	 0 0 0
W 0.254159983	0.217325481184135	0.503929959	 0 0 0
W 0.745840001	0.78267450173654	0.496070009	 0 0 0
W 0.754159999	0.28267453273654003	0.496070009	 0 0 0
W 0.245840001	0.71732546726346	0.503929959	 0 0 0
W 0.745840001	0.217325481184135	0.996070041	 0 0 0
W 0.254159983	0.78267450173654	0.00393	 0 0 0
O 0.242320003	0.009861276171955	0.00122	 0 0 0
O 0.757680014	0.99013874877083	0.998779998	 0 0 0
O 0.257679997	0.49013871554022503	0.501220002	 0 0 0
O 0.742319986	0.50986125569038	0.498779998	 0 0 0
O 0.757680014	0.009861276171955	0.498779998	 0 0 0
O 0.242320003	0.99013874877083	0.501220002	 0 0 0
O 0.742319986	0.49013871554022503	0.998779998	 0 0 0
O 0.257679997	0.50986125569038	0.00122	 0 0 0
O 0.501140012	0.242119995	0.4537500939282	 0 0 0
O 0.498859988	0.757879944	0.546249877748875	 0 0 0
O 0.998860021	0.257880005	0.9537501234743601	 0 0 0
O 0.001139998	0.742120025	0.04624992523782	 0 0 0
O 0.498859988	0.242119995	0.04624992523782	 0 0 0
O 0.501140012	0.757879944	0.9537501234743601	 0 0 0
O 0.001139998	0.257880005	0.546249877748875	 0 0 0
O 0.998860021	0.742120025	0.4537500939282	 0 0 0
O 0.703750129302715	0.248280001	0.748269977	 0 0 0
O 0.29624990952564	0.751719999	0.251730023	 0 0 0
O 0.79624987537436	0.251720015	0.248270042	 0 0 0
O 0.203750110000155	0.74827997	0.751730023	 0 0 0
O 0.29624990952564	0.248280001	0.751730023	 0 0 0
O 0.703750129302715	0.751719999	0.248270042	 0 0 0
O 0.203750110000155	0.251720015	0.251730023	 0 0 0
O 0.79624987537436	0.74827997	0.748269977	 0 0 0

K_POINTS automatic
6 6 6 0 0 0
