
&CONTROL
    calculation   = 'vc-relax'
    restart_mode  = 'from_scratch'
    prefix        = 'Landau_6'
    pseudo_dir    = '/cluster/scratch/mnoe/QE/pps'
    outdir        = './'
    forc_conv_thr = 1.0d-7
    etot_conv_thr = 1.0d-7

/
&SYSTEM
    ibrav       = 0
    nat         = 32
    ntyp        = 2
    ecutwfc     = 120
    occupations = 'smearing'
    degauss     = 7.35d-4
    tot_charge  = -0.0
/
&ELECTRONS
    conv_thr    = 1.0d-8
    diagonalization = 'david'
/


&IONS
ion_dynamics = 'bfgs'
/

&CELL
cell_dynamics = 'bfgs'
cell_dofree = 'all'
/
CELL_PARAMETERS angstrom
        7.3236460686         0.0000000000         0.0000000000
        0.0000000000         7.7495899200         0.0000000000
        0.0000000000         0.0000000000         7.3236460686

ATOMIC_SPECIES
W 183.84 W_ONCV_LDA-4.0.upf
O 15.9994 O_ONCV_LDA-3.0.upf

ATOMIC_POSITIONS crystal
W 0.25260002	0.28123607499840164	-0.997259945	 0 0 0
W 0.7472599415769892	0.7187639250015984	-0.997400013	 0 0 0
W 0.247399996	0.21876394021553652	-0.49726001	 0 0 0
W 0.7527400185769891	0.7812360816304852	-0.497399996	 0 0 0
W 0.7474000095769892	0.28123607499840164	-0.50273999	 0 0 0
W 0.25273999	0.7187639250015984	-0.50260002	 0 0 0
W 0.7526000165769892	0.21876394021553652	-1.002740022	 0 0 0
W 0.24726001	0.7812360816304852	-1.00260002	 0 0 0
O 0.255540017	0.008154556194730177	-0.994480022	 0 0 0
O 0.7444800185769891	0.991845452312568	-0.994459966	 0 0 0
O 0.244459999	0.4918454589446516	-0.49448000599999997	 0 0 0
O 0.7555200065769891	0.508154547687432	-0.49445999900000004	 0 0 0
O 0.7444599625769891	0.008154556194730177	-0.5055199939999999	 0 0 0
O 0.255519994	0.991845452312568	-0.505540017	 0 0 0
O 0.7555399975769891	0.4918454589446516	-1.0055200100000001	 0 0 0
O 0.244480006	0.508154547687432	-1.005540001	 0 0 0
O 0.498839968	0.256619985	-0.5490153939894139	 0 0 0
O 0.500759952	0.7453100392090727	-0.4509845829506261	 0 0 0
O 0.001160026	0.24338	-1.0490153939894138	 0 0 0
O 0.999240016	0.7546899672090727	-0.9509845800008551	 0 0 0
O 0.501160032	0.256619985	-0.9509845800008551	 0 0 0
O 0.499240016	0.7453100392090727	-1.0490153939894138	 0 0 0
O 0.99884	0.24338	-0.4509845829506261	 0 0 0
O 0.000759989	0.7546899672090727	-0.5490153939894139	 0 0 0
O 0.7009845703736369	0.245310006	-0.2507599924230109	 0 0 0
O 0.299015390566403	0.7433800182090726	-0.751160032	 0 0 0
O 0.7990154044723848	0.254689994	-0.750759952	 0 0 0
O 0.20098459001058605	0.7566199882090727	-0.25116002942301086	 0 0 0
O 0.299015390566403	0.245310006	-1.2492400194230109	 0 0 0
O 0.7009845703736369	0.7433800182090726	-0.748839968	 0 0 0
O 0.20098459001058605	0.254689994	-0.749240016	 0 0 0
O 0.7990154044723848	0.7566199882090727	-1.248840003423011	 0 0 0

K_POINTS automatic
6 6 6 0 0 0
