
&CONTROL
    calculation   = 'vc-relax'
    restart_mode  = 'from_scratch'
    prefix        = 'Landau_18'
    pseudo_dir    = '/cluster/scratch/mnoe/QE/pps'
    outdir        = './'
    forc_conv_thr = 1.0d-7
    etot_conv_thr = 1.0d-7

/
&SYSTEM
    ibrav       = 0
    nat         = 16
    ntyp        = 2
    ecutwfc     = 120
    occupations = 'smearing'
    degauss     = 7.35d-4
    tot_charge  = -0.0
/
&ELECTRONS
    conv_thr    = 1.0d-8
    diagonalization = 'david'
/


&IONS
ion_dynamics = 'bfgs'
/

&CELL
cell_dynamics = 'bfgs'
cell_dofree = 'all'
/
CELL_PARAMETERS angstrom
        5.177959919             0.0             0.0
        0.0             5.177959919             0.0
        0.0             0.0            7.7496299744

ATOMIC_SPECIES
W 183.84 W_ONCV_LDA-4.0.upf
O 15.9994 O_ONCV_LDA-3.0.upf

ATOMIC_POSITIONS crystal
W       0.24999999999995415	0.24999999999991832	0.2120090576985394	 0 0 0
W       0.7500000229999598	0.7500000229999848	0.7879909572997205	 0 0 0
W       0.7500000230000133	0.7500000230000348	0.28799095730145957	 0 0 0
W       0.24999999999994577	0.2500000000000258	0.7120090427002796	 0 0 0
O      0.24999999999980524	0.2499999999999383	0.4801056212731738	 0 0 0
O      0.7500000229999946	0.7500000230002322	0.5198943787295014	 0 0 0
O      0.7500000229999078	0.7500000230000137	0.019894391726829865	 0 0 0
O      0.24999999999983336	0.25000000000003875	0.9801056212704925	 0 0 0
O       0.4810074143408559	0.5189925396590921	0.25000000000003014	 0 0 0
O       0.5189925856783574	0.4810074603216644	0.749999999999999	 0 0 0
O       0.018992568659336177	0.9810074603405644	0.25000000000000294	 0 0 0
O       0.9810073683219054	0.018992602678166638	0.750000000000147	 0 0 0
O       0.9810074603406805	0.48100741434065375	0.250000000000113	 0 0 0
O       0.01899260267834308	0.5189925856783402	0.7499999999999822	 0 0 0
O       0.5189925396592335	0.018992568659269883	0.24999999999991468	 0 0 0
O       0.4810074603219179	0.9810073683218706	0.7499999999998165	 0 0 0

K_POINTS automatic
9 9 6 0 0 0
