&CONTROL
    calculation   = 'scf'
    restart_mode  = 'from_scratch'
    prefix        = 'Landau_5'
    pseudo_dir    = '/cluster/scratch/mnoe/QE/pps'
    outdir        = './'
/
&SYSTEM
    ibrav       = 0
    nat         = 16
    ntyp        = 2
    ecutwfc     = 120
    occupations = 'smearing'
    degauss     = 7.35d-4
    tot_charge  = -0.34
/
&ELECTRONS
    conv_thr    = 1.0d-8
    diagonalization = 'david'
/

CELL_PARAMETERS angstrom
   5.203819157   0.000000000   0.000000000
   0.000000000   5.203819157   0.000000000
   0.000000000   0.000000000   7.726113745

ATOMIC_SPECIES
W 183.84 W_ONCV_LDA-4.0.upf
O 15.9994 O_ONCV_LDA-3.0.upf

ATOMIC_POSITIONS crystal
W       0.24999999999998726	0.2499999999999773	0.21642250952737208	
W       0.7500000229999888	0.7500000229999958	0.7835775054721446	
W       0.7500000230000037	0.7500000230000097	0.28357750547262767	
W       0.24999999999998493	0.25000000000000716	0.7164224945278554	
O      0.2499999999999459	0.24999999999998287	0.48845769135365935	
O      0.7500000229999986	0.7500000230000645	0.5115423086470837	
O      0.7500000229999744	0.7500000230000038	0.011542321646341629	
O      0.2499999999999537	0.25000000000001077	0.9884576913529146	
O       0.4581870422057933	0.5418129117941922	0.2500000000000084	
O       0.5418129577995437	0.45818708820046233	0.7499999999999997	
O       0.041812940794260046	0.9581870882057124	0.25000000000000083	
O       0.9581869962005293	0.04181297479949073	0.7500000000000409	
O       0.9581870882057446	0.45818704220573714	0.2500000000000314	
O       0.04181297479953974	0.541812957799539	0.749999999999995	
O       0.5418129117942315	0.04181294079424163	0.2499999999999763	
O       0.4581870882005328	0.9581869962005196	0.749999999999949	

K_POINTS automatic
6 6 6 0 0 0
