
&CONTROL
    calculation   = 'vc-relax'
    restart_mode  = 'from_scratch'
    prefix        = 'Landau_2'
    pseudo_dir    = '/cluster/scratch/mnoe/QE/pps'
    outdir        = './'
    forc_conv_thr = 1.0d-7
    etot_conv_thr = 1.0d-7

/
&SYSTEM
    ibrav       = 0
    nat         = 32
    ntyp        = 2
    ecutwfc     = 120
    occupations = 'smearing'
    degauss     = 7.35d-4
    tot_charge  = -0.0
/
&ELECTRONS
    conv_thr    = 1.0d-8
    diagonalization = 'david'
/


&IONS
ion_dynamics = 'bfgs'
/

&CELL
cell_dynamics = 'bfgs'
cell_dofree = 'all'
/
CELL_PARAMETERS angstrom
        7.3236460686         0.0000000000         0.0000000000
        0.0000000000         7.7495899200         0.0000000000
        0.0000000000         0.0000000000         7.3236460686

ATOMIC_SPECIES
W 183.84 W_ONCV_LDA-4.0.upf
O 15.9994 O_ONCV_LDA-3.0.upf

ATOMIC_POSITIONS crystal
W 0.25	0.2815812097717917	0.0	 0 0 0
W 0.7499999985180313	0.7184187902282083	0.0	 0 0 0
W 0.25	0.21841880532083136	0.5	 0 0 0
W 0.7499999985180313	0.781581181643106	0.5	 0 0 0
W 0.7499999985180313	0.2815812097717917	0.5	 0 0 0
W 0.25	0.7184187902282083	0.5	 0 0 0
W 0.7499999985180313	0.21841880532083136	0.0	 0 0 0
W 0.25	0.781581181643106	0.0	 0 0 0
O 0.25	0.008244048456621621	0.0	 0 0 0
O 0.7499999985180313	0.9917559725982945	0.0	 0 0 0
O 0.25	0.4917559444696088	0.5	 0 0 0
O 0.7499999985180313	0.5082440274017055	0.5	 0 0 0
O 0.7499999985180313	0.008244048456621621	0.5	 0 0 0
O 0.25	0.9917559725982945	0.5	 0 0 0
O 0.7499999985180313	0.4917559444696088	0.0	 0 0 0
O 0.25	0.5082440274017055	0.0	 0 0 0
O 0.5	0.25	0.450221708297577	 0 0 0
O 0.5	0.7499999863893456	0.5497782617589834	 0 0 0
O 0.0	0.25	0.9502217412975771	 0 0 0
O 0.0	0.7499999863893456	0.049778305108977766	 0 0 0
O 0.5	0.25	0.049778305108977766	 0 0 0
O 0.5	0.7499999863893456	0.9502217412975771	 0 0 0
O 0.0	0.25	0.5497782617589834	 0 0 0
O 0.0	0.7499999863893456	0.450221708297577	 0 0 0
O 0.7002217397229853	0.25	0.7499999985180313	 0 0 0
O 0.29977829022045427	0.7499999863893456	0.25	 0 0 0
O 0.799778263240952	0.25	0.25	 0 0 0
O 0.20022172429757706	0.7499999863893456	0.7499999985180313	 0 0 0
O 0.29977829022045427	0.25	0.7499999985180313	 0 0 0
O 0.7002217397229853	0.7499999863893456	0.25	 0 0 0
O 0.20022172429757706	0.25	0.25	 0 0 0
O 0.799778263240952	0.7499999863893456	0.7499999985180313	 0 0 0

K_POINTS automatic
6 6 6 0 0 0
