
&CONTROL
    calculation   = 'vc-relax'
    restart_mode  = 'from_scratch'
    prefix        = 'Landau_20'
    pseudo_dir    = '/cluster/scratch/mnoe/QE/pps'
    outdir        = './'
    forc_conv_thr = 1.0d-7
    etot_conv_thr = 1.0d-7

/
&SYSTEM
    ibrav       = 0
    nat         = 32
    ntyp        = 2
    ecutwfc     = 120
    occupations = 'smearing'
    degauss     = 7.35d-4
    tot_charge  = -0.0
/
&ELECTRONS
    conv_thr    = 1.0d-8
    diagonalization = 'david'
/


&IONS
ion_dynamics = 'bfgs'
/

&CELL
cell_dynamics = 'bfgs'
cell_dofree = 'all'
/
CELL_PARAMETERS angstrom
        7.3236460686         0.0000000000         0.0000000000
        0.0000000000         7.7495899200         0.0000000000
        0.0000000000         0.0000000000         7.3236460686

ATOMIC_SPECIES
W 183.84 W_ONCV_LDA-4.0.upf
O 15.9994 O_ONCV_LDA-3.0.upf

ATOMIC_POSITIONS crystal
W       0.240749992	0.2886519958	0.008740001	 0 0 0
W       0.759249992	0.7113480042	0.991259965	 0 0 0
W       0.259249992	0.2113480102	0.508740003	 0 0 0
W       0.740750008	0.7886519648	0.491259997	 0 0 0
W      0.759249992	0.2886519958	0.491259997	 0 0 0
W      0.240749992	0.7113480042	0.508740003	 0 0 0
W      0.740750008	0.2113480102	0.991259965	 0 0 0
W      0.259249992	0.7886519648	0.008740001	 0 0 0
O       0.232939999	0.021172000599999997	0.00272	 0 0 0
O       0.767059969	0.9788280386	0.997280016	 0 0 0
O       0.267059985	0.478827989	0.502719984	 0 0 0
O       0.732940031	0.5211719986000001	0.497280016	 0 0 0
O       0.767059969	0.021172000599999997	0.497280016	 0 0 0
O       0.232939999	0.9788280386	0.502719984	 0 0 0
O       0.732940031	0.478827989	0.997280016	 0 0 0
O       0.267059985	0.5211719986000001	0.00272	 0 0 0
O    0.502529988	0.232500008	0.484646028	 0 0 0
O    0.497470012	0.767499977	0.5153539779999999	 0 0 0
O    0.997470012	0.267499977	0.9846460322	 0 0 0
O    0.002529979	0.732499992	0.015354014399999998	 0 0 0
O   0.497470012	0.232500008	0.015354014399999998	 0 0 0
O   0.502529988	0.767499977	0.9846460322	 0 0 0
O   0.002529979	0.267499977	0.5153539779999999	 0 0 0
O   0.997470012	0.732499992	0.484646028	 0 0 0
O   0.7346460808	0.246179993	0.746159961	 0 0 0
O   0.26535400080000004	0.753819976	0.253840023	 0 0 0
O   0.7653539582	0.253820007	0.246160026	 0 0 0
O   0.2346460446	0.746179993	0.753840039	 0 0 0
O   0.26535400080000004	0.246179993	0.753840039	 0 0 0
O   0.7346460808	0.753819976	0.246160026	 0 0 0
O   0.2346460446	0.253820007	0.253840023	 0 0 0
O   0.7653539582	0.746179993	0.746159961	 0 0 0

K_POINTS automatic
6 6 6 0 0 0
