&CONTROL
    calculation   = 'scf'
    restart_mode  = 'from_scratch'
    prefix        = 'Landau_11'
    pseudo_dir    = '/cluster/scratch/mnoe/QE/pps'
    outdir        = './'
/
&SYSTEM
    ibrav       = 0
    nat         = 32
    ntyp        = 2
    ecutwfc     = 120
    occupations = 'smearing'
    degauss     = 7.35d-4
    tot_charge  = -0.6
/
&ELECTRONS
    conv_thr    = 1.0d-8
    diagonalization = 'david'
/

CELL_PARAMETERS angstrom
   7.372273828   0.000000000   0.000000000
   0.000000000   7.632832977   0.000000000
   0.000000000   0.000000000   7.372273828

ATOMIC_SPECIES
W 183.84 W_ONCV_LDA-4.0.upf
O 15.9994 O_ONCV_LDA-3.0.upf

ATOMIC_POSITIONS crystal
W 0.23023803139364035	0.27953718016043094	-0.0005658733868364827	
W 0.7505658736757396	0.7204628198395691	-0.019761941136297725	
W 0.26976196860635965	0.22046283561127686	0.4994341227673548	
W 0.7494341142658382	0.7795371730833739	0.48023803139364035	
W 0.7697619414252008	0.27953718016043094	0.5005658772326451	
W 0.24943412276735485	0.7204628198395691	0.5197619686063596	
W 0.7302380465163769	0.22046283561127686	0.0005658860230649473	
W 0.2505658772326452	0.7795371730833739	0.019761953772526188	
O 0.22826567600140685	0.007687194171847003	-0.015767795777756426	
O 0.7657677795846224	-0.00768718737771156	-0.021734297077932428	
O 0.27173429707793245	0.4923128055452314	0.4842321718075705	
O 0.7342321918749182	0.5076871873777116	0.47826568479182663	
O 0.7717342808847983	0.007687194171847003	0.5157678188526085	
O 0.23423216301715066	-0.00768718737771156	0.5217343058683522	
O 0.7282656905747422	0.4923128055452314	0.015767791931947776	
O 0.26576781006218864	0.5076871873777116	0.021734293232123777	
O 0.506993874474688	0.22656803880945897	0.455219762875137	
O 0.501433925146681	0.7650371255155306	0.5447802295912216	
O -0.006993856893848361	0.2734319447085038	0.955219795875137	
O -0.0014339169056623345	0.7349629341132545	0.04478023151704358	
O 0.493006125525312	0.22656803880945897	0.04478023151704358	
O 0.49856607485331905	0.7650371255155306	0.955219795875137	
O 0.006993847004626065	0.2734319447085038	0.5447802295912216	
O 0.0014339070164400385	0.7349629341132545	0.455219762875137	
O 0.7052197827561038	0.2650370959758387	0.7485660806362345	
O 0.2947802247775376	0.7734319912796341	0.256993874474688	
O 0.794780241938547	0.2349628875421241	0.24856611056439962	
O 0.20521977887513698	0.7265680683491509	0.7569938802576035	
O 0.2947802247775376	0.2650370959758387	0.7514339402694175	
O 0.7052197827561038	0.7734319912796341	0.24300616123639257	
O 0.20521977887513698	0.2349628875421241	0.25143392514668095	
O 0.794780241938547	0.7265680683491509	0.7430061406480486	

K_POINTS automatic
6 6 6 0 0 0
