
&CONTROL
    calculation   = 'vc-relax'
    restart_mode  = 'from_scratch'
    prefix        = 'Landau_1'
    pseudo_dir    = '/cluster/scratch/mnoe/QE/pps'
    outdir        = './'
    forc_conv_thr = 1.0d-7
    etot_conv_thr = 1.0d-7

/
&SYSTEM
    ibrav       = 0
    nat         = 32
    ntyp        = 2
    ecutwfc     = 120
    occupations = 'smearing'
    degauss     = 7.35d-4
    tot_charge  = -0.0
/
&ELECTRONS
    conv_thr    = 1.0d-8
    diagonalization = 'david'
/


&IONS
ion_dynamics = 'bfgs'
/

&CELL
cell_dynamics = 'bfgs'
cell_dofree = 'all'
/
CELL_PARAMETERS angstrom
        7.3236460686         0.0000000000         0.0000000000
        0.0000000000         7.7495899200         0.0000000000
        0.0000000000         0.0000000000         7.3236460686

ATOMIC_SPECIES
W 183.84 W_ONCV_LDA-4.0.upf
O 15.9994 O_ONCV_LDA-3.0.upf

ATOMIC_POSITIONS crystal
W 0.249540001	0.28176058454579767	0.00044	 0 0 0
W 0.7504600154715257	0.7182394154542023	0.999559974	 0 0 0
W 0.250459999	0.218239430487232	0.500439994	 0 0 0
W 0.7495399834715257	0.7817605545697165	0.499560006	 0 0 0
W 0.7504600154715257	0.28176058454579767	0.499560006	 0 0 0
W 0.249540001	0.7182394154542023	0.500439994	 0 0 0
W 0.7495399834715257	0.218239430487232	0.999559974	 0 0 0
W 0.250459999	0.7817605545697165	0.00044	 0 0 0
O 0.249149997	0.008292915464677928	0.00014	 0 0 0
O 0.7508500354715257	0.9917071068416997	0.999860009	 0 0 0
O 0.25085002	0.4917070768656185	0.500140023	 0 0 0
O 0.7491499634715257	0.5082928931583003	0.499859977	 0 0 0
O 0.7508500354715257	0.008292915464677928	0.499859977	 0 0 0
O 0.249149997	0.9917071068416997	0.500140023	 0 0 0
O 0.7491499634715257	0.4917070768656185	0.999860009	 0 0 0
O 0.25085002	0.5082928931583003	0.00014	 0 0 0
O 0.500129996	0.249119995	0.4497831016818331	 0 0 0
O 0.499870004	0.7508800214954445	0.5502168664081449	 0 0 0
O 0.999869972	0.250880005	0.9497831346818332	 0 0 0
O 0.000129938	0.7491200104954445	0.05021691339333696	 0 0 0
O 0.499870004	0.249119995	0.05021691339333696	 0 0 0
O 0.500129996	0.7508800214954445	0.9497831346818332	 0 0 0
O 0.000129938	0.250880005	0.5502168664081449	 0 0 0
O 0.999869972	0.7491200104954445	0.4497831016818331	 0 0 0
O 0.6997831341203293	0.249809988	0.7498100024715257	 0 0 0
O 0.3002168977896926	0.7501899974954446	0.250190013	 0 0 0
O 0.8002168669366192	0.250190012	0.249809987	 0 0 0
O 0.19978311768183316	0.7498099734954445	0.7501899964715257	 0 0 0
O 0.3002168977896926	0.249809988	0.7501899964715257	 0 0 0
O 0.6997831341203293	0.7501899974954446	0.249809987	 0 0 0
O 0.19978311768183316	0.250190012	0.250190013	 0 0 0
O 0.8002168669366192	0.7498099734954445	0.7498100024715257	 0 0 0

K_POINTS automatic
6 6 6 0 0 0
