&CONTROL
    calculation   = 'scf'
    restart_mode  = 'from_scratch'
    prefix        = 'Landau_10'
    pseudo_dir    = '/cluster/scratch/mnoe/QE/pps'
    outdir        = './'
/
&SYSTEM
    ibrav       = 0
    nat         = 32
    ntyp        = 2
    ecutwfc     = 120
    occupations = 'smearing'
    degauss     = 7.35d-4
    tot_charge  = -0.6
/
&ELECTRONS
    conv_thr    = 1.0d-8
    diagonalization = 'david'
/

CELL_PARAMETERS angstrom
   7.337506795   0.000000000   0.000000000
   0.000000000   7.699975841   0.000000000
   0.000000000   0.000000000   7.351980358

ATOMIC_SPECIES
W 183.84 W_ONCV_LDA-4.0.upf
O 15.9994 O_ONCV_LDA-3.0.upf

ATOMIC_POSITIONS crystal
W 0.240749992	0.2808695279398166	0.008740001	
W 0.759249986734976	0.7191304720601834	0.991259965	
W 0.259249992	0.2191304873892474	0.508740003	
W 0.740750002734976	0.7808695071408005	0.491259997	
W 0.759249986734976	0.2808695279398166	0.491259997	
W 0.240749992	0.7191304720601834	0.508740003	
W 0.740750002734976	0.2191304873892474	0.991259965	
W 0.259249992	0.7808695071408005	0.008740001	
O 0.232939999	0.008050165219642602	0.00272	
O 0.767059963734976	0.9919498508700135	0.997280016	
O 0.267059985	0.49194983007099735	0.502719984	
O 0.7329400257349761	0.5080501491299865	0.497280016	
O 0.767059963734976	0.008050165219642602	0.497280016	
O 0.232939999	0.9919498508700135	0.502719984	
O 0.7329400257349761	0.49194983007099735	0.997280016	
O 0.267059985	0.5080501491299865	0.00272	
O 0.502529988	0.232500008	0.4519619104053642	
O 0.497470012	0.76749998193596	0.5480380674537476	
O 0.997470012	0.267499977	0.9519619434053642	
O 0.002529979	0.73249999693596	0.04803809638084386	
O 0.497470012	0.232500008	0.04803809638084386	
O 0.502529988	0.76749998193596	0.9519619434053642	
O 0.002529979	0.267499977	0.5480380674537476	
O 0.997470012	0.73249999693596	0.4519619104053642	
O 0.7019619378112764	0.246179993	0.7461599557349761	
O 0.2980380843296118	0.7538199809359599	0.253840023	
O 0.7980380727187716	0.253820007	0.246160026	
O 0.20196192640536426	0.74617999793596	0.753840033734976	
O 0.2980380843296118	0.246179993	0.753840033734976	
O 0.7019619378112764	0.7538199809359599	0.246160026	
O 0.20196192640536426	0.253820007	0.253840023	
O 0.7980380727187716	0.74617999793596	0.7461599557349761	

K_POINTS automatic
6 6 6 0 0 0
