&CONTROL
    calculation   = 'scf'
    restart_mode  = 'from_scratch'
    prefix        = 'Landau_14'
    pseudo_dir    = '/cluster/scratch/mnoe/QE/pps'
    outdir        = './'
/
&SYSTEM
    ibrav       = 0
    nat         = 32
    ntyp        = 2
    ecutwfc     = 120
    occupations = 'smearing'
    degauss     = 7.35d-4
    tot_charge  = -1.0
/
&ELECTRONS
    conv_thr    = 1.0d-8
    diagonalization = 'david'
/

CELL_PARAMETERS angstrom
   7.409275222   0.000000000   0.000000000
   0.000000000   7.670719351   0.000000000
   0.000000000   0.000000000   7.411256772

ATOMIC_SPECIES
W 183.84 W_ONCV_LDA-4.0.upf
O 15.9994 O_ONCV_LDA-3.0.upf

ATOMIC_POSITIONS crystal
W        0.24353001	0.28661439796000004	0.00612	
W        0.756469974	0.71338560204	0.993880002	
W        0.25646999	0.21338561074	0.50612003	
W        0.743530026	0.78661436696	0.493880002	
W       0.756469974	0.28661439796000004	0.493880002	
W       0.24353001	0.71338560204	0.50612003	
W       0.743530026	0.21338561074	0.993880002	
W       0.25646999	0.78661436696	0.00612	
O        0.238059992	0.017316400420000003	0.0019	
O        0.761940025	0.98268363392	0.99809997	
O        0.261940008	0.48268358990000004	0.50190003	
O        0.738059975	0.51731639212	0.498100002	
O        0.761940025	0.017316400420000003	0.498100002	
O        0.238059992	0.98268363392	0.50190003	
O        0.738059975	0.48268358990000004	0.99809997	
O        0.261940008	0.51731639212	0.0019	
O    0.501770034	0.237749996	0.4741142208	
O    0.498229966	0.762250035	0.5258857735	
O    0.998229998	0.262250004	0.97411423364	
O    0.00177002	0.737749996	0.025885813679999994	
O   0.498229966	0.237749996	0.025885813679999994	
O   0.501770034	0.762250035	0.97411423364	
O   0.00177002	0.262250004	0.5258857735	
O   0.998229998	0.737749996	0.4741142208	
O   0.72411426766	0.247320003	0.747319994	
O   0.27588579936	0.752680027	0.252680006	
O   0.77588575964	0.252679997	0.247319929	
O   0.22411423722	0.747320003	0.752680006	
O   0.27588579936	0.247320003	0.752680006	
O   0.72411426766	0.752680027	0.247319929	
O   0.22411423722	0.252679997	0.252680006	
O   0.77588575964	0.747320003	0.747319994	

K_POINTS automatic
6 6 6 0 0 0
