
&CONTROL
    calculation   = 'vc-relax'
    restart_mode  = 'from_scratch'
    prefix        = 'Landau_11'
    pseudo_dir    = '/cluster/scratch/mnoe/QE/pps'
    outdir        = './'
    forc_conv_thr = 1.0d-7
    etot_conv_thr = 1.0d-7

/
&SYSTEM
    ibrav       = 0
    nat         = 32
    ntyp        = 2
    ecutwfc     = 120
    occupations = 'smearing'
    degauss     = 7.35d-4
    tot_charge  = -0.0
/
&ELECTRONS
    conv_thr    = 1.0d-8
    diagonalization = 'david'
/


&IONS
ion_dynamics = 'bfgs'
/

&CELL
cell_dynamics = 'bfgs'
cell_dofree = 'all'
/
CELL_PARAMETERS angstrom
        7.3236460686         0.0000000000         0.0000000000
        0.0000000000         7.3236460686         0.0000000000
        0.0000000000         0.0000000000         7.7495899200

ATOMIC_SPECIES
W 183.84 W_ONCV_LDA-4.0.upf
O 15.9994 O_ONCV_LDA-3.0.upf

ATOMIC_POSITIONS crystal
W 0.245230011         0.244980009         0.218119991 0 0 0
W 0.754769989         0.755020040         0.218119991 0 0 0
W 0.244980009         0.754769989         0.781880024 0 0 0
W 0.755020040         0.245230011         0.781880024 0 0 0
W 0.254769973         0.744979993         0.281880024 0 0 0
W 0.745230043         0.255019991         0.281880024 0 0 0
W 0.255019991         0.254769973         0.718119976 0 0 0
W 0.744979993         0.745230043         0.718119976 0 0 0
O 0.239840007         0.239890001         0.491670026 0 0 0
O 0.760159944         0.760109999         0.491670026 0 0 0
O 0.239890001         0.760159944         0.508329974 0 0 0
O 0.760109999         0.239840007         0.508329974 0 0 0
O 0.260159993         0.739889969         0.008329987 0 0 0
O 0.739840024         0.260110015         0.008329987 0 0 0
O 0.260110015         0.260159993         0.991670026 0 0 0
O 0.739889969         0.739840024         0.991670026 0 0 0
O 0.199410008         0.498610006         0.258590001 0 0 0
O 0.800589976         0.501389994         0.258590001 0 0 0
O 0.498610006         0.800589976         0.741409999 0 0 0
O 0.501389994         0.199410008         0.741409999 0 0 0
O 0.300589976         0.998610006         0.241409984 0 0 0
O 0.699409992         0.001390010         0.241409984 0 0 0
O 0.001390010         0.300589976         0.758590001 0 0 0
O 0.998610006         0.699409992         0.758590001 0 0 0
O 0.997879976         0.199410008         0.237859992 0 0 0
O 0.002120018         0.800589976         0.237859992 0 0 0
O 0.199410008         0.002120018         0.762140054 0 0 0
O 0.800589976         0.997879976         0.762140054 0 0 0
O 0.502120024         0.699409992         0.262139992 0 0 0
O 0.497879976         0.300589976         0.262139992 0 0 0
O 0.300589976         0.502120024         0.737859946 0 0 0
O 0.699409992         0.497879976         0.737859946 0 0 0

K_POINTS automatic
6 6 6 0 0 0
