
&CONTROL
    calculation   = 'vc-relax'
    restart_mode  = 'from_scratch'
    prefix        = 'Landau_36'
    pseudo_dir    = '/cluster/scratch/mnoe/QE/pps'
    outdir        = './'
    forc_conv_thr = 1.0d-7
    etot_conv_thr = 1.0d-7

/
&SYSTEM
    ibrav       = 0
    nat         = 32
    ntyp        = 2
    ecutwfc     = 120
    occupations = 'smearing'
    degauss     = 7.35d-4
    tot_charge  = -0.0
/
&ELECTRONS
    conv_thr    = 1.0d-8
    diagonalization = 'david'
/


&IONS
ion_dynamics = 'bfgs'
/

&CELL
cell_dynamics = 'bfgs'
cell_dofree = 'all'
/
CELL_PARAMETERS angstrom
        7.3236460686         0.0000000000         0.0000000000
        0.0000000000         7.3236460686         0.0000000000
        0.0000000000         0.0000000000         7.7495899200

ATOMIC_SPECIES
W 183.84 W_ONCV_LDA-4.0.upf
O 15.9994 O_ONCV_LDA-3.0.upf

ATOMIC_POSITIONS crystal
W 0.234389998         0.233579988         0.218119991 0 0 0
W 0.765610002         0.766419996         0.218119991 0 0 0
W 0.233579988         0.765610002         0.781880024 0 0 0
W 0.766419996         0.234389998         0.781880024 0 0 0
W 0.265609985         0.733579972         0.281880024 0 0 0
W 0.734390031         0.266420012         0.281880024 0 0 0
W 0.266420012         0.265609985         0.718119976 0 0 0
W 0.733579972         0.734390031         0.718119976 0 0 0
O 0.216730006         0.216900011         0.491670026 0 0 0
O 0.783270010         0.783099989         0.491670026 0 0 0
O 0.216900011         0.783270010         0.508329974 0 0 0
O 0.783099989         0.216730006         0.508329974 0 0 0
O 0.283270010         0.716899979         0.008329987 0 0 0
O 0.716730023         0.283100021         0.008329987 0 0 0
O 0.283100021         0.283270010         0.991670026 0 0 0
O 0.716899979         0.716730023         0.991670026 0 0 0
O 0.199410008         0.495459989         0.278119999 0 0 0
O 0.800589976         0.504539978         0.278119999 0 0 0
O 0.495459989         0.800589976         0.721879970 0 0 0
O 0.504539978         0.199410008         0.721879970 0 0 0
O 0.300589976         0.995460022         0.221879985 0 0 0
O 0.699409992         0.004539996         0.221879985 0 0 0
O 0.004539996         0.300589976         0.778120030 0 0 0
O 0.995460022         0.699409992         0.778120030 0 0 0
O 0.993070021         0.199410008         0.210270000 0 0 0
O 0.006929994         0.800589976         0.210270000 0 0 0
O 0.199410008         0.006929994         0.789730000 0 0 0
O 0.800589976         0.993070021         0.789730000 0 0 0
O 0.506929979         0.699409992         0.289730000 0 0 0
O 0.493070021         0.300589976         0.289730000 0 0 0
O 0.300589976         0.506929979         0.710270000 0 0 0
O 0.699409992         0.493070021         0.710270000 0 0 0

K_POINTS automatic
6 6 6 0 0 0
