
&CONTROL
    calculation   = 'vc-relax'
    restart_mode  = 'from_scratch'
    prefix        = 'Landau_4'
    pseudo_dir    = '/cluster/scratch/mnoe/QE/pps'
    outdir        = './'
    forc_conv_thr = 1.0d-7
    etot_conv_thr = 1.0d-7

/
&SYSTEM
    ibrav       = 0
    nat         = 32
    ntyp        = 2
    ecutwfc     = 120
    occupations = 'smearing'
    degauss     = 7.35d-4
    tot_charge  = -0.0
/
&ELECTRONS
    conv_thr    = 1.0d-8
    diagonalization = 'david'
/


&IONS
ion_dynamics = 'bfgs'
/

&CELL
cell_dynamics = 'bfgs'
cell_dofree = 'all'
/
CELL_PARAMETERS angstrom
        7.3236460686         0.0000000000         0.0000000000
        0.0000000000         7.7495899200         0.0000000000
        0.0000000000         0.0000000000         7.3236460686

ATOMIC_SPECIES
W 183.84 W_ONCV_LDA-4.0.upf
O 15.9994 O_ONCV_LDA-3.0.upf

ATOMIC_POSITIONS crystal
W 0.2465734911766344	0.27875999111348176	0.0019247192973575783	 0 0 0
W 0.7521176216855188	0.7212400088865183	-0.003310751651988171	 0 0 0
W 0.2534265088233656	0.22124002491643036	0.5019247201589482	 0 0 0
W 0.747882346218883	0.7787599920407584	0.4966892427664031	 0 0 0
W 0.7534264894228552	0.27875999111348176	0.4980752798410518	 0 0 0
W 0.24788236052477067	0.7212400088865183	0.503310757233597	 0 0 0
W 0.7465734784815466	0.22124002491643036	-0.0019247158509951303	 0 0 0
W 0.2521176394752293	0.7787599920407584	0.003310755098350619	 0 0 0
O 0.24468248528317366	0.007475464826798295	-0.00046488297835286727	 0 0 0
O 0.7549106697598948	-0.00747546345495345	-0.0020921664738063474	 0 0 0
O 0.2553175110831616	0.4925245374723232	0.4995351118895639	 0 0 0
O 0.745089297020693	0.5074754634549534	0.4979078322899984	 0 0 0
O 0.7553174906337583	0.007475464826798295	0.5004648837650225	 0 0 0
O 0.24508930518306501	-0.00747546345495345	0.5020921633645881	 0 0 0
O 0.7446824761468297	0.4925245374723232	0.00046488192945995214	 0 0 0
O 0.2549106911832702	0.5074754634549534	0.002092165424913432	 0 0 0
O 0.5010455221541111	0.24446783927384047	0.45712014301255977	 0 0 0
O 0.49952912027605295	0.7549597682828498	0.5428798579745412	 0 0 0
O -0.0010455246639620953	0.25553215623090414	0.9571201760125598	 0 0 0
O 0.0004708746667847274	0.7450402438901137	0.042879844149899975	 0 0 0
O 0.4989544778458888	0.24446783927384047	0.042879844149899975	 0 0 0
O 0.500470879723947	0.7549597682828498	0.9571201760125598	 0 0 0
O 0.0010455146620188794	0.25553215623090414	0.5428798579745412	 0 0 0
O -0.00047088466872794333	0.7450402438901137	0.45712014301255977	 0 0 0
O 0.7071201585040533	0.250166698191982	0.7490402501320298	 0 0 0
O 0.29287984050884575	0.7524562900252164	0.2513388350950856	 0 0 0
O 0.7928798744531356	0.24983330068420415	0.24904027511414897	 0 0 0
O 0.20712015901255978	0.7475437222601284	0.7513388198526864	 0 0 0
O 0.29287984050884575	0.250166698191982	0.7509597200199997	 0 0 0
O 0.7071201585040533	0.7524562900252164	0.24866117464463441	 0 0 0
O 0.20712015901255978	0.24983330068420415	0.25095973462557103	 0 0 0
O 0.7928798744531356	0.7475437222601284	0.7486611502993431	 0 0 0

K_POINTS automatic
6 6 6 0 0 0
