&CONTROL
    calculation   = 'scf'
    restart_mode  = 'from_scratch'
    prefix        = 'Landau_2'
    pseudo_dir    = '/cluster/scratch/mnoe/QE/pps'
    outdir        = './'
/
&SYSTEM
    ibrav       = 0
    nat         = 32
    ntyp        = 2
    ecutwfc     = 120
    occupations = 'smearing'
    degauss     = 7.35d-4
    tot_charge  = -0.6
/
&ELECTRONS
    conv_thr    = 1.0d-8
    diagonalization = 'david'
/

CELL_PARAMETERS angstrom
   7.331176929   0.000000000   0.000000000
   0.000000000   7.741026770   0.000000000
   0.000000000   0.000000000   7.331176929

ATOMIC_SPECIES
W 183.84 W_ONCV_LDA-4.0.upf
O 15.9994 O_ONCV_LDA-3.0.upf

ATOMIC_POSITIONS crystal
W 0.2464069147988437	0.28143767157462385	-0.00010288607033390532	
W 0.7501028861228617	0.7185623284253762	-0.0035930802065995858	
W 0.2535930852011563	0.21856234356568668	0.4998971132304281	
W 0.7498971116846979	0.7814376449242498	0.4964069147988437	
W 0.7535930802591274	0.28143767157462385	0.5001028867695718	
W 0.24989711323042815	0.7185623284253762	0.5035930852011563	
W 0.7464069175484321	0.21856234356568668	0.00010288836782998997	
W 0.2501028867695719	0.7814376449242498	0.0035930825040956706	
O 0.24604830472752853	0.008204944394881272	-0.0028668719595920772	
O 0.7528668690153859	-0.008204924341402084	-0.003951690377805896	
O 0.2539516903778059	0.4917950490082239	0.497133122146831	
O 0.7471331257954397	0.5082049243414021	0.49604830632578667	
O 0.7539516874335997	0.008204944394881272	0.5028668761550197	
O 0.24713312054857284	-0.008204924341402084	0.503951691976064	
O 0.7460483073772258	0.4917950490082239	0.002866871260354141	
O 0.25286687455676155	0.5082049243414021	0.00395168967856796	
O 0.5012716135408524	0.24573964341990162	0.4505726874318431	
O 0.5002607136630329	0.7527340105482783	0.5494272841984039	
O -0.0012716103443360658	0.25426035358336435	0.950572720431843	
O -0.0002607121646658791	0.7472659757478645	0.049427324639462464	
O 0.49872838645914763	0.24573964341990162	0.049427324639462464	
O 0.4997392863369671	0.7527340105482783	0.950572720431843	
O 0.0012716085462956483	0.25426035358336435	0.5494272841984039	
O 0.0002607103666254616	0.7472659757478645	0.4505726874318431	
O 0.7005727180465643	0.2527340174501525	0.7497392873884063	
O 0.29942731032318864	0.7542603497781153	0.25127161354085237	
O 0.7994272864433721	0.24726597955311347	0.24973929282989085	
O 0.2005727034318431	0.7457396365180274	0.7512716145922915	
O 0.29942731032318864	0.2527340174501525	0.7502607164126214	
O 0.7005727180465643	0.7542603497781153	0.2487283929520714	
O 0.2005727034318431	0.24726597955311347	0.2502607136630329	
O 0.7994272864433721	0.7457396365180274	0.7487283892087361	

K_POINTS automatic
6 6 6 0 0 0
