&CONTROL
    calculation   = 'scf'
    restart_mode  = 'from_scratch'
    prefix        = 'Landau_4'
    pseudo_dir    = '/cluster/scratch/mnoe/QE/pps'
    outdir        = './'
/
&SYSTEM
    ibrav       = 0
    nat         = 32
    ntyp        = 2
    ecutwfc     = 120
    occupations = 'smearing'
    degauss     = 7.35d-4
    tot_charge  = -0.2
/
&ELECTRONS
    conv_thr    = 1.0d-8
    diagonalization = 'david'
/

CELL_PARAMETERS angstrom
   7.323032740   0.000000000   0.000000000
   0.000000000   7.743395140   0.000000000
   0.000000000   0.000000000   7.325375802

ATOMIC_SPECIES
W 183.84 W_ONCV_LDA-4.0.upf
O 15.9994 O_ONCV_LDA-3.0.upf

ATOMIC_POSITIONS crystal
W 0.246300000         0.281860003         0.003490000
W 0.753700049         0.718139997         0.996510002
W 0.253700016         0.218140012         0.503489965
W 0.746299951         0.781859972         0.496510002
W 0.753700049         0.281860003         0.496510002
W 0.246300000         0.718139997         0.503489965
W 0.746299951         0.218140012         0.996510002
W 0.253700016         0.781859972         0.003490000
O 0.243180001         0.008320000         0.001090000
O 0.756819950         0.991680023         0.998910027
O 0.256819999         0.491679992         0.501090006
O 0.743180050         0.508319977         0.498909994
O 0.756819950         0.008320000         0.498909994
O 0.243180001         0.991680023         0.501090006
O 0.743180050         0.491679992         0.998910027
O 0.256819999         0.508319977         0.001090000
O 0.501010016         0.243000000         0.449540004
O 0.498989984         0.756999969         0.550459963
O 0.998989984         0.257000000         0.949540037
O 0.001009941         0.743000000         0.050460012
O 0.498989984         0.243000000         0.050460012
O 0.501010016         0.756999969         0.949540037
O 0.001009941         0.257000000         0.550459963
O 0.998989984         0.743000000         0.449540004
O 0.699540037         0.248469997         0.748470001
O 0.300459996         0.751529987         0.251529999
O 0.800459963         0.251529987         0.248470066
O 0.199540020         0.748469982         0.751529999
O 0.300459996         0.248469997         0.751529999
O 0.699540037         0.751529987         0.248470066
O 0.199540020         0.251529987         0.251529999
O 0.800459963         0.748469982         0.748470001

K_POINTS automatic
6 6 6 0 0 0
