&CONTROL
    calculation   = 'scf'
    restart_mode  = 'from_scratch'
    prefix        = 'Landau_3'
    pseudo_dir    = '/cluster/scratch/mnoe/QE/pps'
    outdir        = './'
/
&SYSTEM
    ibrav       = 0
    nat         = 32
    ntyp        = 2
    ecutwfc     = 120
    occupations = 'smearing'
    degauss     = 7.35d-4
    tot_charge  = -1.0
/
&ELECTRONS
    conv_thr    = 1.0d-8
    diagonalization = 'david'
/

CELL_PARAMETERS angstrom
   7.343618950   0.000000000   0.000000000
   0.000000000   7.731164552   0.000000000
   0.000000000   0.000000000   7.344901877

ATOMIC_SPECIES
W 183.84 W_ONCV_LDA-4.0.upf
O 15.9994 O_ONCV_LDA-3.0.upf

ATOMIC_POSITIONS crystal
W 0.247229993	0.2806714329277799	0.00262	
W 0.7527699836819712	0.71932856707222	0.997380027	
W 0.252770007	0.21932858246709688	0.502619973	
W 0.7472300036819712	0.7806714141689606	0.497379995	
W 0.7527699836819712	0.2806714329277799	0.497379995	
W 0.247229993	0.71932856707222	0.502619973	
W 0.7472300036819712	0.21932858246709688	0.997380027	
W 0.252770007	0.7806714141689606	0.00262	
O 0.244880007	0.007996198263571123	0.00082	
O 0.7551200026819712	0.9920038164440161	0.999180046	
O 0.255119976	0.49200379768519686	0.500819987	
O 0.7448799846819713	0.5079961835559839	0.499179981	
O 0.7551200026819712	0.007996198263571123	0.499179981	
O 0.244880007	0.9920038164440161	0.500819987	
O 0.7448799846819713	0.49200379768519686	0.999180046	
O 0.255119976	0.5079961835559839	0.00082	
O 0.500760019	0.244749996	0.4524462916864371	
O 0.499239981	0.7552499949231519	0.5475536883444971	
O 0.999239949	0.255250004	0.9524463246864371	
O 0.000760078	0.7447500479231519	0.04755371325701263	
O 0.499239981	0.244749996	0.04755371325701263	
O 0.500760019	0.7552499949231519	0.9524463246864371	
O 0.000760078	0.255250004	0.5475536883444971	
O 0.999239949	0.7447500479231519	0.4524462916864371	
O 0.7024463179735316	0.248850006	0.7488499876819712	
O 0.29755370199553416	0.751150030923152	0.251150006	
O 0.7975536946625259	0.251150009	0.248849994	
O 0.2024463076864371	0.7488500119231519	0.7511499996819713	
O 0.29755370199553416	0.248850006	0.7511499996819713	
O 0.7024463179735316	0.751150030923152	0.248849994	
O 0.2024463076864371	0.251150009	0.251150006	
O 0.7975536946625259	0.7488500119231519	0.7488499876819712	

K_POINTS automatic
6 6 6 0 0 0
