&CONTROL
    calculation   = 'scf'
    restart_mode  = 'from_scratch'
    prefix        = 'Landau_19'
    pseudo_dir    = '/cluster/scratch/mnoe/QE/pps'
    outdir        = './'
/
&SYSTEM
    ibrav       = 0
    nat         = 32
    ntyp        = 2
    ecutwfc     = 120
    occupations = 'smearing'
    degauss     = 7.35d-4
    tot_charge  = -1.0
/
&ELECTRONS
    conv_thr    = 1.0d-8
    diagonalization = 'david'
/

CELL_PARAMETERS angstrom
   7.372941422   0.000000000   0.000000000
   0.000000000   7.574719198   0.000000000
   0.000000000   0.000000000   7.422583451

ATOMIC_SPECIES
W 183.84 W_ONCV_LDA-4.0.upf
O 15.9994 O_ONCV_LDA-3.0.upf

ATOMIC_POSITIONS crystal
W 0.232429994	0.27808210174030995	0.0166	
W 0.7675699699179794	0.72191789825969	0.983399982	
W 0.267570023	0.22191791451481627	0.516600018	
W 0.7324299899179794	0.7780821096492249	0.483399982	
W 0.7675699699179794	0.27808210174030995	0.483399982	
W 0.232429994	0.72191789825969	0.516600018	
W 0.7324299899179794	0.22191791451481627	0.983399982	
W 0.267570023	0.7780821096492249	0.0166	
O 0.217580004	0.0072907876577612985	0.00516	
O 0.7824199759179794	0.9927092089845867	0.994840012	
O 0.282419996	0.4927092168935016	0.505159988	
O 0.7175799839179794	0.5072907910154133	0.494840012	
O 0.7824199759179794	0.0072907876577612985	0.494840012	
O 0.217580004	0.9927092089845867	0.505159988	
O 0.7175799839179794	0.4927092168935016	0.994840012	
O 0.282419996	0.5072907910154133	0.00516	
O 0.504800017	0.216739997	0.4587777159096593	
O 0.495199983	0.7832600378268944	0.5412222925095082	
O 0.995199951	0.283259988	0.9587777489096594	
O 0.004800081	0.7167400308268944	0.04122226494680456	
O 0.495199983	0.216739997	0.04122226494680456	
O 0.504800017	0.7832600378268944	0.9587777489096594	
O 0.004800081	0.283259988	0.5412222925095082	
O 0.995199951	0.7167400308268944	0.4587777159096593	
O 0.7087777275725125	0.24274001	0.7427099869179794	
O 0.29122226400831996	0.7572599628268943	0.25729001	
O 0.7912223125915288	0.25725999	0.24270999	
O 0.20877773190965937	0.7427400448268944	0.7572899729179794	
O 0.29122226400831996	0.24274001	0.7572899729179794	
O 0.7087777275725125	0.7572599628268943	0.24270999	
O 0.20877773190965937	0.25725999	0.25729001	
O 0.7912223125915288	0.7427400448268944	0.7427099869179794	

K_POINTS automatic
6 6 6 0 0 0
