&CONTROL
    calculation   = 'scf'
    restart_mode  = 'from_scratch'
    prefix        = 'Landau_12'
    pseudo_dir    = '/cluster/scratch/mnoe/QE/pps'
    outdir        = './'
/
&SYSTEM
    ibrav       = 0
    nat         = 16
    ntyp        = 2
    ecutwfc     = 120
    occupations = 'smearing'
    degauss     = 7.35d-4
    tot_charge  = -0.025
/
&ELECTRONS
    conv_thr    = 1.0d-8
    diagonalization = 'david'
/

CELL_PARAMETERS angstrom
   5.231542794   0.000000000   0.000000000
   0.000000000   5.231542794   0.000000000
   0.000000000   0.000000000   7.695922874

ATOMIC_SPECIES
W 183.84 W_ONCV_LDA-4.0.upf
O 15.9994 O_ONCV_LDA-3.0.upf

ATOMIC_POSITIONS crystal
W      0.2499999999999694	0.24999999999994554	0.21404603546569295	
W      0.7500000229999731	0.7500000229999899	0.7859539795331469	
W      0.7500000230000089	0.7500000230000232	0.2859539795343064	
W      0.24999999999996383	0.2500000000000172	0.7140460204668532	
O     0.24999999999987016	0.24999999999995887	0.48396042284878255	
O     0.7500000229999965	0.7500000230001548	0.516039577153001	
O     0.7500000229999385	0.7500000230000091	0.01603959015121991	
O     0.24999999999988892	0.2500000000000258	0.983960422846995	
O      0.4704749348939039	0.5295250191060614	0.2500000000000201	
O      0.529525065118905	0.4704749808811096	0.7499999999999993	
O      0.029525048106224114	0.9704749808937096	0.25000000000000194	
O      0.9704748888812702	0.029525082118777756	0.750000000000098	
O      0.970474980893787	0.4704749348937692	0.2500000000000754	
O      0.029525082118895388	0.5295250651188935	0.7499999999999881	
O      0.5295250191061557	0.029525048106179917	0.24999999999994313	
O      0.4704749808812786	0.9704748888812471	0.7499999999998777	

K_POINTS automatic
6 6 6 0 0 0
