
&CONTROL
    calculation   = 'vc-relax'
    restart_mode  = 'from_scratch'
    prefix        = 'Landau_22'
    pseudo_dir    = '/cluster/scratch/mnoe/QE/pps'
    outdir        = './'
    forc_conv_thr = 1.0d-7
    etot_conv_thr = 1.0d-7

/
&SYSTEM
    ibrav       = 0
    nat         = 32
    ntyp        = 2
    ecutwfc     = 120
    occupations = 'smearing'
    degauss     = 7.35d-4
    tot_charge  = -0.0
/
&ELECTRONS
    conv_thr    = 1.0d-8
    diagonalization = 'david'
/


&IONS
ion_dynamics = 'bfgs'
/

&CELL
cell_dynamics = 'bfgs'
cell_dofree = 'all'
/
CELL_PARAMETERS angstrom
        7.3236460686         0.0000000000         0.0000000000
        0.0000000000         7.7495899200         0.0000000000
        0.0000000000         0.0000000000         7.3236460686

ATOMIC_SPECIES
W 183.84 W_ONCV_LDA-4.0.upf
O 15.9994 O_ONCV_LDA-3.0.upf

ATOMIC_POSITIONS crystal
W 0.23983001	0.28575031682064717	0.00961	 0 0 0
W 0.760169958	0.7142496831793529	0.990390005	 0 0 0
W 0.26016999	0.2142496930243379	0.509609995	 0 0 0
W 0.739830042	0.7857502858206471	0.490390005	 0 0 0
W 0.760169958	0.28575031682064717	0.490390005	 0 0 0
W 0.23983001	0.7142496831793529	0.509609995	 0 0 0
W 0.739830042	0.2142496930243379	0.990390005	 0 0 0
W 0.26016999	0.7857502858206471	0.00961	 0 0 0
O 0.231229998	0.01568136168417983	0.00299	 0 0 0
O 0.768770002	0.9843186705948471	0.997009996	 0 0 0
O 0.268769986	0.4843186289411495	0.502990004	 0 0 0
O 0.731229998	0.5156813507125481	0.497009996	 0 0 0
O 0.768770002	0.01568136168417983	0.497009996	 0 0 0
O 0.231229998	0.9843186705948471	0.502990004	 0 0 0
O 0.731229998	0.4843186289411495	0.997009996	 0 0 0
O 0.268769986	0.5156813507125481	0.00299	 0 0 0
O 0.502780018	0.230749996	0.46964801270624745	 0 0 0
O 0.497219982	0.769250019	0.5303519766321506	 0 0 0
O 0.997219982	0.269250019	0.9696480292101997	 0 0 0
O 0.002779961	0.73074995	0.03035201841512971	 0 0 0
O 0.497219982	0.230749996	0.03035201841512971	 0 0 0
O 0.502780018	0.769250019	0.9696480292101997	 0 0 0
O 0.002779961	0.269250019	0.5303519766321506	 0 0 0
O 0.997219982	0.73074995	0.46964801270624745	 0 0 0
O 0.7196480570472803	0.2458	0.745779968	 0 0 0
O 0.28035200378980035	0.7542	0.254220016	 0 0 0
O 0.7803519652911177	0.254199985	0.245779984	 0 0 0
O 0.21964802904991512	0.745800031	0.754220032	 0 0 0
O 0.28035200378980035	0.2458	0.754220032	 0 0 0
O 0.7196480570472803	0.7542	0.245779984	 0 0 0
O 0.21964802904991512	0.254199985	0.254220016	 0 0 0
O 0.7803519652911177	0.745800031	0.745779968	 0 0 0

K_POINTS automatic
6 6 6 0 0 0
