
&CONTROL
    calculation   = 'vc-relax'
    restart_mode  = 'from_scratch'
    prefix        = 'Landau_18'
    pseudo_dir    = '/cluster/scratch/mnoe/QE/pps'
    outdir        = './'
    forc_conv_thr = 1.0d-7
    etot_conv_thr = 1.0d-7

/
&SYSTEM
    ibrav       = 0
    nat         = 32
    ntyp        = 2
    ecutwfc     = 120
    occupations = 'smearing'
    degauss     = 7.35d-4
    tot_charge  = -0.0
/
&ELECTRONS
    conv_thr    = 1.0d-8
    diagonalization = 'david'
/


&IONS
ion_dynamics = 'bfgs'
/

&CELL
cell_dynamics = 'bfgs'
cell_dofree = 'all'
/
CELL_PARAMETERS angstrom
        7.3236460686         0.0000000000         0.0000000000
        0.0000000000         7.7495899200         0.0000000000
        0.0000000000         0.0000000000         7.3236460686

ATOMIC_SPECIES
W 183.84 W_ONCV_LDA-4.0.upf
O 15.9994 O_ONCV_LDA-3.0.upf

ATOMIC_POSITIONS crystal
W 0.257799979	0.27994817699520497	-0.991790027	 0 0 0
W 0.7417900167309673	0.7200518230047951	-0.992200005	 0 0 0
W 0.242200005	0.22005183864660957	-0.491789994	 0 0 0
W 0.7582099957309674	0.7799481968914557	-0.492200005	 0 0 0
W 0.7421999947309674	0.27994817699520497	-0.508210006	 0 0 0
W 0.258210006	0.7200518230047951	-0.5077999790000001	 0 0 0
W 0.7577999517309674	0.22005183864660957	-1.008210006	 0 0 0
W 0.241789994	0.7799481968914557	-1.007799962	 0 0 0
O 0.266629999	0.007803694584190527	-0.983449997	 0 0 0
O 0.7334499867309674	0.992196304937704	-0.983370033	 0 0 0
O 0.233370001	0.49219632483395487	-0.483449997	 0 0 0
O 0.7665500247309673	0.507803695062296	-0.483370001	 0 0 0
O 0.7333700227309674	0.007803694584190527	-0.516550003	 0 0 0
O 0.266550003	0.992196304937704	-0.5166299990000001	 0 0 0
O 0.7666299887309673	0.49219632483395487	-1.0165500349999999	 0 0 0
O 0.233449997	0.507803695062296	-1.016629999	 0 0 0
O 0.496530062	0.269869984	-0.5458662299682417	 0 0 0
O 0.502269989	0.7359399636272181	-0.4541337328518783	 0 0 0
O 0.003470003	0.230130001	-1.0458662299682417	 0 0 0
O 0.997730011	0.7640600556272181	-0.9541337560025652	 0 0 0
O 0.503470003	0.269869984	-0.9541337560025652	 0 0 0
O 0.497729978	0.7359399636272181	-1.0458662299682417	 0 0 0
O 0.996529964	0.230130001	-0.4541337328518783	 0 0 0
O 0.002270013	0.7640600556272181	-0.5458662299682417	 0 0 0
O 0.7041337271209109	0.235940016	-0.25227002326903264	 0 0 0
O 0.2958662196992092	0.7301300256272182	-0.753470003	 0 0 0
O 0.7958662614171543	0.264059984	-0.752269989	 0 0 0
O 0.20413375403175815	0.7698699936272181	-0.2534700132690326	 0 0 0
O 0.2958662196992092	0.235940016	-1.2477300212690328	 0 0 0
O 0.7041337271209109	0.7301300256272182	-0.7465300619999999	 0 0 0
O 0.20413375403175815	0.264059984	-0.747729978	 0 0 0
O 0.7958662614171543	0.7698699936272181	-1.2465299742690328	 0 0 0

K_POINTS automatic
6 6 6 0 0 0
