&CONTROL
    calculation   = 'scf'
    restart_mode  = 'from_scratch'
    prefix        = 'Landau_15'
    pseudo_dir    = '/cluster/scratch/mnoe/QE/pps'
    outdir        = './'
/
&SYSTEM
    ibrav       = 0
    nat         = 16
    ntyp        = 2
    ecutwfc     = 120
    occupations = 'smearing'
    degauss     = 7.35d-4
    tot_charge  = -1.5
/
&ELECTRONS
    conv_thr    = 1.0d-8
    diagonalization = 'david'
/

CELL_PARAMETERS angstrom
5.38140650012931051762 0 0
0 5.38140650012931051762 0
0 0 7.63550038791379313290

ATOMIC_SPECIES
W 183.84 W_ONCV_LDA-4.0.upf
O 15.9994 O_ONCV_LDA-3.0.upf

ATOMIC_POSITIONS crystal
W      0.24999999999996178	0.24999999999993194	0.21302754658211617	
W      0.7500000229999665	0.7500000229999874	0.7869724684164336	
W      0.7500000230000111	0.750000023000029	0.286972468417883	
W      0.2499999999999548	0.2500000000000215	0.7130275315835664	
O     0.2499999999998377	0.2499999999999486	0.48203302206097814	
O     0.7500000229999955	0.7500000230001935	0.5179669779412511	
O     0.7500000229999231	0.7500000230000113	0.017966990939024888	
O     0.24999999999986114	0.25000000000003225	0.9820330220587438	
O      0.4757411746173799	0.5242587793825768	0.25000000000002515	
O      0.5242588253986311	0.475741220601387	0.7499999999999991	
O      0.024258808382780144	0.9757412206171371	0.25000000000000244	
O      0.9757411286015878	0.024258842398472195	0.7500000000001225	
O      0.9757412206172338	0.47574117461721144	0.2500000000000942	
O      0.024258842398619234	0.5242588253986168	0.7499999999999851	
O      0.5242587793826946	0.024258808382724897	0.24999999999992892	
O      0.47574122060159824	0.9757411286015588	0.7499999999998471	

K_POINTS automatic
6 6 6 0 0 0
