&CONTROL
    calculation   = 'scf'
    restart_mode  = 'from_scratch'
    prefix        = 'Landau_5'
    pseudo_dir    = '/cluster/scratch/mnoe/QE/pps'
    outdir        = './'
/
&SYSTEM
    ibrav       = 0
    nat         = 32
    ntyp        = 2
    ecutwfc     = 120
    occupations = 'smearing'
    degauss     = 7.35d-4
    tot_charge  = -0.2
/
&ELECTRONS
    conv_thr    = 1.0d-8
    diagonalization = 'david'
/

CELL_PARAMETERS angstrom
   7.387014622   0.000000000   0.000000000
   0.000000000   7.697316810   0.000000000
   0.000000000   0.000000000   7.388817108

ATOMIC_SPECIES
W 183.84 W_ONCV_LDA-4.0.upf
O 15.9994 O_ONCV_LDA-3.0.upf

ATOMIC_POSITIONS crystal
W 0.24653517679962708	0.2779329215874576	0.003271917014883132	
W 0.7534647991414705	0.7220670784125425	-0.00327191270726511	
W 0.2534648232003729	0.22206709471723057	0.5032719188877606	
W 0.7465351591085079	0.7779329310327912	0.4967280811122395	
W 0.7534647991414705	0.2779329215874576	0.4967280811122395	
W 0.24653517679962708	0.7220670784125425	0.5032719188877606	
W 0.7465351591085079	0.22206709471723057	-0.00327191270726511	
W 0.2534648232003729	0.7779329310327912	0.003271917014883132	
O 0.24360786697992276	0.007250146559972167	0.0010169724312445894	
O 0.7563921029679671	-0.007250150958423922	-0.0010169737422587657	
O 0.2563921300234734	0.49274985848690966	0.5010169675617633	
O 0.7436078552820112	0.507250150958424	0.4989830262577412	
O 0.7563921029679671	0.007250146559972167	0.4989830262577412	
O 0.24360786697992276	-0.007250150958423922	0.5010169675617633	
O 0.7436078552820112	0.49274985848690966	-0.0010169737422587657	
O 0.2563921300234734	0.507250150958424	0.0010169724312445894	
O 0.500947677465539	0.2434430563902577	0.45914249073567015	
O 0.49905232253446097	0.7565569509893811	0.5408575193190397	
O -0.0009476836460344971	0.25655693799111007	0.9591425237356701	
O 0.0009476681011520278	0.7434430693885288	0.040857488733060804	
O 0.49905232253446097	0.2434430563902577	0.040857488733060804	
O 0.500947677465539	0.7565569509893811	0.9591425237356701	
O 0.0009476681011520278	0.25655693799111007	0.5408575193190397	
O -0.0009476836460344971	0.7434430693885288	0.45914249073567015	
O 0.7091425015559711	0.24856912203669174	0.7485634847769169	
O 0.2908574883893189	0.7514308911488671	0.2514364943480722	
O 0.7908575401940505	0.25143087796330826	0.24856351782563096	
O 0.20914250673567017	0.7485691294163306	0.7514364734730613	
O 0.2908574883893189	0.24856912203669174	0.7514364734730613	
O 0.7091425015559711	0.7514308911488671	0.24856351782563096	
O 0.20914250673567017	0.25143087796330826	0.2514364943480722	
O 0.7908575401940505	0.7485691294163306	0.7485634847769169	

K_POINTS automatic
6 6 6 0 0 0
