# Phonon frequency and phonon lifetime in meV 
# Q-point  Mode   Phonon freq (meV)   Phonon linewidth (meV)
        1     1     -0.32916570E-03      0.0000000000E+00
        1     2     -0.32916471E-03      0.0000000000E+00
        1     3     -0.14887706E-03      0.0000000000E+00
        1     4      0.29919048E+01      0.1251302442E-02
        1     5      0.15475210E+02      0.1474229703E-01
        1     6      0.25371518E+02      0.1535222775E-02
        1     7      0.25371518E+02      0.1535222775E-02
        1     8      0.30738849E+02      0.5635623649E-02
        1     9      0.30738849E+02      0.5635623649E-02
        1    10      0.30867723E+02      0.2106374657E+00
        1    11      0.36583462E+02      0.2482089128E-01
        1    12      0.36583462E+02      0.2482089128E-01
        1    13      0.39143112E+02      0.5646177872E-03
        1    14      0.39567063E+02      0.1478767363E-01
        1    15      0.39567063E+02      0.1478767363E-01
        1    16      0.46253485E+02      0.7388100547E-02
        1    17      0.46253485E+02      0.7388100547E-02
        1    18      0.57332213E+02      0.2097388371E-01
        1    19      0.80091980E+02      0.2902898936E-02
        1    20      0.80091980E+02      0.2902898936E-02
        1    21      0.88146303E+02      0.3060954455E-02
        1    22      0.92715190E+02      0.1211886002E+00
        1    23      0.94047144E+02      0.1174183459E-01
        1    24      0.12725122E+03      0.4401586657E-03
        2     1      0.16464842E+00      0.0000000000E+00
        2     2      0.16464842E+00      0.0000000000E+00
        2     3      0.32650623E+00      0.0000000000E+00
        2     4      0.29917149E+01      0.1481092902E-02
        2     5      0.15482645E+02      0.2703926947E-01
        2     6      0.25373766E+02      0.1743682051E-02
        2     7      0.25373766E+02      0.1743682051E-02
        2     8      0.30733523E+02      0.7482286837E-02
        2     9      0.30733523E+02      0.7482286837E-02
        2    10      0.30867961E+02      0.2252976576E+00
        2    11      0.36583689E+02      0.2311682965E-01
        2    12      0.36583689E+02      0.2311682965E-01
        2    13      0.39151545E+02      0.4916811176E-02
        2    14      0.39566547E+02      0.1364607853E-01
        2    15      0.39566547E+02      0.1364607853E-01
        2    16      0.46256690E+02      0.7497687440E-02
        2    17      0.46256690E+02      0.7497687440E-02
        2    18      0.57332121E+02      0.2081829068E-01
        2    19      0.80091471E+02      0.2484043225E-02
        2    20      0.80091471E+02      0.2484043225E-02
        2    21      0.88145298E+02      0.2901502959E-02
        2    22      0.92704027E+02      0.1059116479E+00
        2    23      0.94081283E+02      0.1122719939E-01
        2    24      0.12725230E+03      0.4834948056E-03
        3     1      0.32912705E+00      0.0000000000E+00
        3     2      0.32912705E+00      0.0000000000E+00
        3     3      0.65383736E+00      0.4670785138E-02
        3     4      0.29911450E+01      0.2953149463E-03
        3     5      0.15504885E+02      0.5753647191E-01
        3     6      0.25380501E+02      0.1578214416E-02
        3     7      0.25380501E+02      0.1578214416E-02
        3     8      0.30717567E+02      0.1108687317E-01
        3     9      0.30717567E+02      0.1108687317E-01
        3    10      0.30868674E+02      0.1938296503E+00
        3    11      0.36584366E+02      0.2000259625E-01
        3    12      0.36584366E+02      0.2000259625E-01
        3    13      0.39176784E+02      0.6452361387E-01
        3    14      0.39565008E+02      0.1161796387E-01
        3    15      0.39565008E+02      0.1161796387E-01
        3    16      0.46266287E+02      0.8548277215E-02
        3    17      0.46266287E+02      0.8548277215E-02
        3    18      0.57331845E+02      0.2063931484E-01
        3    19      0.80089946E+02      0.2182677918E-02
        3    20      0.80089946E+02      0.2182677918E-02
        3    21      0.88142283E+02      0.2999629886E-02
        3    22      0.92674411E+02      0.1068888348E+00
        3    23      0.94179758E+02      0.1495626587E-01
        3    24      0.12725553E+03      0.5292973485E-03
        4     1      0.49326560E+00      0.0000000000E+00
        4     2      0.49326560E+00      0.0000000000E+00
        4     3      0.98278985E+00      0.1720491162E-01
        4     4      0.29901950E+01     -0.5367286415E-04
        4     5      0.15541739E+02      0.9548841366E-01
        4     6      0.25391696E+02      0.1464916585E-02
        4     7      0.25391696E+02      0.1464916585E-02
        4     8      0.30691044E+02      0.1185515388E-01
        4     9      0.30691044E+02      0.1185515388E-01
        4    10      0.30869860E+02      0.1661341000E+00
        4    11      0.36585483E+02      0.1679602110E-01
        4    12      0.36585483E+02      0.1679602110E-01
        4    13      0.39218643E+02      0.2283646057E+00
        4    14      0.39562467E+02      0.9371464289E-02
        4    15      0.39562467E+02      0.9371464289E-02
        4    16      0.46282225E+02      0.9770333168E-02
        4    17      0.46282225E+02      0.9770333168E-02
        4    18      0.57331385E+02      0.2051041319E-01
        4    19      0.80087407E+02      0.1996017440E-02
        4    20      0.80087407E+02      0.1996017440E-02
        4    21      0.88137259E+02      0.2984664125E-02
        4    22      0.92635096E+02      0.1120036570E+00
        4    23      0.94333597E+02      0.5008269471E-01
        4    24      0.12726090E+03      0.5709258336E-03
        5     1      0.65689564E+00      0.2121070867E-03
        5     2      0.65689564E+00      0.2121070867E-03
        5     3      0.13141053E+01      0.4409073501E-01
        5     4      0.29888641E+01      0.9637418380E-03
        5     5      0.15592896E+02      0.1407514692E+00
        5     6      0.25407305E+02      0.1498047834E-02
        5     7      0.25407305E+02      0.1498047834E-02
        5     8      0.30654058E+02      0.1234160117E-01
        5     9      0.30654058E+02      0.1234160117E-01
        5    10      0.30871518E+02      0.1775627037E+00
        5    11      0.36587022E+02      0.1598643494E-01
        5    12      0.36587022E+02      0.1598643494E-01
        5    13      0.39276818E+02      0.4010195218E+00
        5    14      0.39558959E+02      0.8703154856E-02
        5    15      0.39558959E+02      0.8703154856E-02
        5    16      0.46304421E+02      0.1093270473E-01
        5    17      0.46304421E+02      0.1093270473E-01
        5    18      0.57330742E+02      0.2307674152E-01
        5    19      0.80083856E+02      0.1931659039E-02
        5    20      0.80083856E+02      0.1931659039E-02
        5    21      0.88130229E+02      0.2923921729E-02
        5    22      0.92594927E+02      0.1302847083E+00
        5    23      0.94533596E+02      0.2985168973E+00
        5    24      0.12726844E+03      0.7431438959E-03
        6     1      0.81985047E+00      0.2792560401E-03
        6     2      0.81985047E+00      0.2792560401E-03
        6     3      0.16484468E+01      0.4032832286E-01
        6     4      0.29871516E+01      0.3860024240E-03
        6     5      0.15657935E+02      0.1273330145E+00
        6     6      0.25427261E+02      0.1425881243E-02
        6     7      0.25427261E+02      0.1425881243E-02
        6     8      0.30606755E+02      0.1100170156E-01
        6     9      0.30606755E+02      0.1100170156E-01
        6    10      0.30873642E+02      0.1728066128E+00
        6    11      0.36588956E+02      0.1586070576E-01
        6    12      0.36588956E+02      0.1586070576E-01
        6    13      0.39350888E+02      0.5435260889E+00
        6    14      0.39554533E+02      0.8422647029E-02
        6    15      0.39554533E+02      0.8422647029E-02
        6    16      0.46332761E+02      0.9779847466E-02
        6    17      0.46332761E+02      0.9779847466E-02
        6    18      0.57329917E+02      0.2525190089E-01
        6    19      0.80079297E+02      0.1724468421E-02
        6    20      0.80079297E+02      0.1724468421E-02
        6    21      0.88121199E+02      0.2746078334E-02
        6    22      0.92560495E+02      0.2069887518E+00
        6    23      0.94772665E+02      0.8275773927E+00
        6    24      0.12727813E+03      0.1276478460E-02
        7     1      0.98196573E+00      0.4067653808E-03
        7     2      0.98196573E+00      0.4067653808E-03
        7     3      0.19863804E+01      0.4588764264E-01
        7     4      0.29850564E+01      0.8891526856E-03
        7     5      0.15736344E+02      0.1283589191E+00
        7     6      0.25451475E+02      0.1600842003E-02
        7     7      0.25451475E+02      0.1600842003E-02
        7     8      0.30549323E+02      0.1120455209E-01
        7     9      0.30549323E+02      0.1120455209E-01
        7    10      0.30876229E+02      0.1914917719E+00
        7    11      0.36591257E+02      0.1442091763E-01
        7    12      0.36591257E+02      0.1442091763E-01
        7    13      0.39440325E+02      0.6330831800E+00
        7    14      0.39549248E+02      0.7656966469E-02
        7    15      0.39549248E+02      0.7656966469E-02
        7    16      0.46367101E+02      0.9494167950E-02
        7    17      0.46367101E+02      0.9494167950E-02
        7    18      0.57328908E+02      0.2600761703E-01
        7    19      0.80073734E+02      0.1792262820E-02
        7    20      0.80073734E+02      0.1792262820E-02
        7    21      0.88110172E+02      0.2630271611E-02
        7    22      0.92536041E+02      0.3492516192E+00
        7    23      0.95045923E+02      0.1371966812E+01
        7    24      0.12728999E+03      0.2059210336E-02
        8     1      0.11430800E+01      0.5152124831E-03
        8     2      0.11430800E+01      0.5152124831E-03
        8     3      0.23283604E+01      0.5299462361E-01
        8     4      0.29825774E+01      0.1315114634E-02
        8     5      0.15827530E+02      0.1388848663E+00
        8     6      0.25479835E+02      0.1816741333E-02
        8     7      0.25479835E+02      0.1816741333E-02
        8     8      0.30481992E+02      0.1091467149E-01
        8     9      0.30481992E+02      0.1091467149E-01
        8    10      0.30879271E+02      0.2002011208E+00
        8    11      0.36593888E+02      0.1269314759E-01
        8    12      0.36593888E+02      0.1269314759E-01
        8    13      0.39543173E+02      0.2414769694E+00
        8    14      0.39543173E+02      0.2414769694E+00
        8    15      0.39544499E+02      0.2414769694E+00
        8    16      0.46407271E+02      0.8942436895E-02
        8    17      0.46407271E+02      0.8942436895E-02
        8    18      0.57327718E+02      0.2277095994E-01
        8    19      0.80067175E+02      0.1716120788E-02
        8    20      0.80067175E+02      0.1716120788E-02
        8    21      0.88097155E+02      0.2712634054E-02
        8    22      0.92524071E+02      0.5001727916E+00
        8    23      0.95350090E+02      0.1814260005E+01
        8    24      0.12730402E+03      0.2283108787E-02
        9     1      0.13030352E+01      0.6706754392E-03
        9     2      0.13030352E+01      0.6706754392E-03
        9     3      0.26747216E+01      0.6513285685E-01
        9     4      0.29797131E+01      0.1089349209E-02
        9     5      0.15930843E+02      0.1475192889E+00
        9     6      0.25512199E+02      0.2126951758E-02
        9     7      0.25512199E+02      0.2126951758E-02
        9     8      0.30405038E+02      0.1136208170E-01
        9     9      0.30405038E+02      0.1136208170E-01
        9    10      0.30882763E+02      0.2243460237E+00
        9    11      0.36596810E+02      0.1106358317E-01
        9    12      0.36596810E+02      0.1106358317E-01
        9    13      0.39536388E+02      0.6009209492E-02
        9    14      0.39536388E+02      0.6009209492E-02
        9    15      0.39662690E+02      0.7780100632E+00
        9    16      0.46453078E+02      0.8822520548E-02
        9    17      0.46453078E+02      0.8822520548E-02
        9    18      0.57326347E+02      0.1894144654E-01
        9    19      0.80059625E+02      0.1670766621E-02
        9    20      0.80059625E+02      0.1670766621E-02
        9    21      0.88082156E+02      0.2829164481E-02
        9    22      0.92525949E+02      0.6687892525E+00
        9    23      0.95682894E+02      0.2329526485E+01
        9    24      0.12732022E+03      0.2267259229E-02
       10     1      0.14616773E+01      0.9763853863E-03
       10     2      0.14616773E+01      0.9763853863E-03
       10     3      0.29764619E+01      0.1215865994E-02
       10     4      0.30256749E+01      0.7870620074E-01
       10     5      0.16045591E+02      0.1673505937E+00
       10     6      0.25548394E+02      0.2341837458E-02
       10     7      0.25548394E+02      0.2341837458E-02
       10     8      0.30318779E+02      0.1096864746E-01
       10     9      0.30318779E+02      0.1096864746E-01
       10    10      0.30886695E+02      0.2248255034E+00
       10    11      0.36599982E+02      0.1448039630E-01
       10    12      0.36599982E+02      0.1448039630E-01
       10    13      0.39528977E+02      0.7667278136E-02
       10    14      0.39528977E+02      0.7667278136E-02
       10    15      0.39794096E+02      0.9040822593E+00
       10    16      0.46504309E+02      0.8397128108E-02
       10    17      0.46504309E+02      0.8397128108E-02
       10    18      0.57324796E+02      0.1521319058E-01
       10    19      0.80051094E+02      0.1698718834E-02
       10    20      0.80051094E+02      0.1698718834E-02
       10    21      0.88065183E+02      0.2994048106E-02
       10    22      0.92542306E+02      0.7752259424E+00
       10    23      0.96042671E+02      0.2744723997E+01
       10    24      0.12733861E+03      0.1874529168E-02
       11     1      0.16188568E+01      0.1223785553E-02
       11     2      0.16188568E+01      0.1223785553E-02
       11     3      0.29728219E+01      0.7016765186E-03
       11     4      0.33813091E+01      0.9263211347E-01
       11     5      0.16171061E+02      0.1823615231E+00
       11     6      0.25588206E+02      0.2131208908E-02
       11     7      0.25588206E+02      0.2131208908E-02
       11     8      0.30223584E+02      0.9763671922E-02
       11     9      0.30223584E+02      0.9763671922E-02
       11    10      0.30891059E+02      0.2034619001E+00
       11    11      0.36603358E+02      0.1446901348E-01
       11    12      0.36603358E+02      0.1446901348E-01
       11    13      0.39521029E+02      0.7977544633E-02
       11    14      0.39521029E+02      0.7977544633E-02
       11    15      0.39937846E+02      0.1054256098E+01
       11    16      0.46560732E+02      0.7784763706E-02
       11    17      0.46560732E+02      0.7784763706E-02
       11    18      0.57323067E+02      0.1409628688E-01
       11    19      0.80041589E+02      0.1752229799E-02
       11    20      0.80041589E+02      0.1752229799E-02
       11    21      0.88046247E+02      0.3251750659E-02
       11    22      0.92573302E+02      0.8014969002E+00
       11    23      0.96428105E+02      0.2918252019E+01
       11    24      0.12735919E+03      0.2053755199E-02
       12     1      0.17744292E+01      0.1354565579E-02
       12     2      0.17744292E+01      0.1354565579E-02
       12     3      0.29687913E+01      0.6653221482E-03
       12     4      0.37415951E+01      0.8437233557E-01
       12     5      0.16306531E+02      0.1791418884E+00
       12     6      0.25631377E+02      0.2208755810E-02
       12     7      0.25631377E+02      0.2208755810E-02
       12     8      0.30119877E+02      0.8823914204E-02
       12     9      0.30119877E+02      0.8823914204E-02
       12    10      0.30895846E+02      0.2022429315E+00
       12    11      0.36606894E+02      0.1273536178E-01
       12    12      0.36606894E+02      0.1273536178E-01
       12    13      0.39512637E+02      0.7077316650E-02
       12    14      0.39512637E+02      0.7077316650E-02
       12    15      0.40093010E+02      0.1082435075E+01
       12    16      0.46622105E+02      0.7078429564E-02
       12    17      0.46622105E+02      0.7078429564E-02
       12    18      0.57321159E+02      0.1278343906E-01
       12    19      0.80031123E+02      0.1963592687E-02
       12    20      0.80031123E+02      0.1963592687E-02
       12    21      0.88025359E+02      0.3484746935E-02
       12    22      0.92618787E+02      0.8224203741E+00
       12    23      0.96838071E+02      0.3103503563E+01
       12    24      0.12738196E+03      0.2725611998E-02
       13     1      0.19282552E+01      0.1505141794E-02
       13     2      0.19282552E+01      0.1505141794E-02
       13     3      0.29643679E+01      0.2472497897E-03
       13     4      0.41063942E+01      0.7163775956E-01
       13     5      0.16451287E+02      0.1795456127E+00
       13     6      0.25677589E+02      0.2275607442E-02
       13     7      0.25677589E+02      0.2275607442E-02
       13     8      0.30008145E+02      0.7782476005E-02
       13     9      0.30008145E+02      0.7782476005E-02
       13    10      0.30901043E+02      0.1935706684E+00
       13    11      0.36610545E+02      0.1382933898E-01
       13    12      0.36610545E+02      0.1382933898E-01
       13    13      0.39503896E+02      0.7532768610E-02
       13    14      0.39503896E+02      0.7532768610E-02
       13    15      0.40258610E+02      0.1093858642E+01
       13    16      0.46688172E+02      0.6234191855E-02
       13    17      0.46688172E+02      0.6234191855E-02
       13    18      0.57319075E+02      0.1117965884E-01
       13    19      0.80019704E+02      0.2064896719E-02
       13    20      0.80019704E+02      0.2064896719E-02
       13    21      0.88002531E+02      0.3799558284E-02
       13    22      0.92678408E+02      0.8571528358E+00
       13    23      0.97271540E+02      0.3374507295E+01
       13    24      0.12740693E+03      0.3854633632E-02
       14     1      0.20802014E+01      0.1736397642E-02
       14     2      0.20802014E+01      0.1736397642E-02
       14     3      0.29595493E+01     -0.1971307755E-03
       14     4      0.44754672E+01      0.7526347580E-01
       14     5      0.16604639E+02      0.1821643137E+00
       14     6      0.25726452E+02      0.2165866257E-02
       14     7      0.25726452E+02      0.2165866257E-02
       14     8      0.29888951E+02      0.7217006372E-02
       14     9      0.29888951E+02      0.7217006372E-02
       14    10      0.30906639E+02      0.1772748030E+00
       14    11      0.36614264E+02      0.1401045557E-01
       14    12      0.36614264E+02      0.1401045557E-01
       14    13      0.39494901E+02      0.7704881345E-02
       14    14      0.39494901E+02      0.7704881345E-02
       14    15      0.40433635E+02      0.1017891563E+01
       14    16      0.46758671E+02      0.5863678321E-02
       14    17      0.46758671E+02      0.5863678321E-02
       14    18      0.57316816E+02      0.9543688393E-02
       14    19      0.80007347E+02      0.2039477372E-02
       14    20      0.80007347E+02      0.2039477372E-02
       14    21      0.87977777E+02      0.4060442775E-02
       14    22      0.92751668E+02      0.8909895460E+00
       14    23      0.97727519E+02      0.3709043706E+01
       14    24      0.12743411E+03      0.4619586429E-02
       15     1      0.22301406E+01      0.1906773528E-02
       15     2      0.22301406E+01      0.1906773528E-02
       15     3      0.29543332E+01     -0.5844945549E-03
       15     4      0.48484858E+01      0.3336669364E-01
       15     5      0.16765924E+02      0.1625228060E+00
       15     6      0.25777483E+02      0.2364370110E-02
       15     7      0.25777483E+02      0.2364370110E-02
       15     8      0.29762949E+02      0.6974914591E-02
       15     9      0.29762949E+02      0.6974914591E-02
       15    10      0.30912621E+02      0.1829082944E+00
       15    11      0.36618008E+02      0.9867093314E-02
       15    12      0.36618008E+02      0.9867093314E-02
       15    13      0.39485745E+02      0.5651047067E-02
       15    14      0.39485745E+02      0.5651047067E-02
       15    15      0.40617049E+02      0.1013839125E+01
       15    16      0.46833337E+02      0.5839650891E-02
       15    17      0.46833337E+02      0.5839650891E-02
       15    18      0.57314384E+02      0.8721819183E-02
       15    19      0.79994064E+02      0.2060923405E-02
       15    20      0.79994064E+02      0.2060923405E-02
       15    21      0.87951112E+02      0.4350182998E-02
       15    22      0.92837972E+02      0.9296182821E+00
       15    23      0.98205018E+02      0.4128066364E+01
       15    24      0.12746349E+03      0.5580749383E-02
       16     1      0.23779522E+01      0.2176274019E-02
       16     2      0.23779522E+01      0.2176274019E-02
       16     3      0.29487171E+01      0.1140823149E-02
       16     4      0.52250441E+01      0.2520829846E-01
       16     5      0.16934520E+02      0.1623841766E+00
       16     6      0.25830081E+02      0.2692089025E-02
       16     7      0.25830081E+02      0.2692089025E-02
       16     8      0.29630913E+02      0.7539163035E-02
       16     9      0.29630913E+02      0.7539163035E-02
       16    10      0.30918976E+02      0.2020819913E+00
       16    11      0.36621735E+02      0.1054276314E-01
       16    12      0.36621735E+02      0.1054276314E-01
       16    13      0.39476520E+02      0.5664538932E-02
       16    14      0.39476520E+02      0.5664538932E-02
       16    15      0.40807803E+02      0.1049211834E+01
       16    16      0.46911902E+02      0.5879112567E-02
       16    17      0.46911902E+02      0.5879112567E-02
       16    18      0.57311780E+02      0.8110562282E-02
       16    19      0.79979870E+02      0.2112752817E-02
       16    20      0.79979870E+02      0.2112752817E-02
       16    21      0.87922552E+02      0.4771367786E-02
       16    22      0.92936660E+02      0.8828021083E+00
       16    23      0.98703025E+02      0.4232644532E+01
       16    24      0.12749510E+03      0.7198898889E-02
       17     1      0.25235222E+01      0.2424793481E-02
       17     2      0.25235222E+01      0.2424793481E-02
       17     3      0.29426983E+01      0.7883824894E-03
       17     4      0.56046697E+01      0.1757043792E-01
       17     5      0.17109849E+02      0.1568531321E+00
       17     6      0.25883489E+02      0.3254239442E-02
       17     7      0.25883489E+02      0.3254239442E-02
       17     8      0.29493766E+02      0.7070166619E-02
       17     9      0.29493766E+02      0.7070166619E-02
       17    10      0.30925689E+02      0.2054296506E+00
       17    11      0.36625403E+02      0.1110845087E-01
       17    12      0.36625403E+02      0.1110845087E-01
       17    13      0.39467316E+02      0.5665959271E-02
       17    14      0.39467316E+02      0.5665959271E-02
       17    15      0.41004846E+02      0.9620209582E+00
       17    16      0.46994097E+02      0.5849591329E-02
       17    17      0.46994097E+02      0.5849591329E-02
       17    18      0.57309006E+02      0.8108950528E-02
       17    19      0.79964779E+02      0.1932514413E-02
       17    20      0.79964779E+02      0.1932514413E-02
       17    21      0.87892115E+02      0.5036512520E-02
       17    22      0.93047023E+02      0.8786079101E+00
       17    23      0.99220494E+02      0.4390971952E+01
       17    24      0.12752892E+03      0.9148853539E-02
       18     1      0.26667439E+01      0.2932924040E-02
       18     2      0.26667439E+01      0.2932924040E-02
       18     3      0.29362742E+01      0.1231238078E-02
       18     4      0.59868354E+01      0.3229428022E-01
       18     5      0.17291384E+02      0.1696158226E+00
       18     6      0.25936743E+02      0.3832398157E-02
       18     7      0.25936743E+02      0.3832398157E-02
       18     8      0.29352632E+02      0.6560294762E-02
       18     9      0.29352632E+02      0.6560294762E-02
       18    10      0.30932746E+02      0.1940295449E+00
       18    11      0.36628976E+02      0.9771507181E-02
       18    12      0.36628976E+02      0.9771507181E-02
       18    13      0.39458219E+02      0.5213924167E-02
       18    14      0.39458219E+02      0.5213924167E-02
       18    15      0.41207133E+02      0.9829294839E+00
       18    16      0.47079657E+02      0.5434161369E-02
       18    17      0.47079657E+02      0.5434161369E-02
       18    18      0.57306064E+02      0.8194743169E-02
       18    19      0.79948808E+02      0.1897468820E-02
       18    20      0.79948808E+02      0.1897468820E-02
       18    21      0.87859820E+02      0.5336364101E-02
       18    22      0.93168317E+02      0.8541421166E+00
       18    23      0.99756340E+02      0.4573618752E+01
       18    24      0.12756496E+03      0.1130615909E-01
       19     1      0.28075177E+01      0.3177452786E-02
       19     2      0.28075177E+01      0.3177452786E-02
       19     3      0.29294420E+01      0.2501355852E-02
       19     4      0.63709690E+01      0.4074851113E-01
       19     5      0.17478648E+02      0.1757783776E+00
       19     6      0.25988611E+02      0.3763063349E-02
       19     7      0.25988611E+02      0.3763063349E-02
       19     8      0.29208902E+02      0.6740341751E-02
       19     9      0.29208902E+02      0.6740341751E-02
       19    10      0.30940130E+02      0.1910060183E+00
       19    11      0.36632417E+02      0.9166849654E-02
       19    12      0.36632417E+02      0.9166849654E-02
       19    13      0.39449311E+02      0.4702097170E-02
       19    14      0.39449311E+02      0.4702097170E-02
       19    15      0.41413632E+02      0.9263286954E+00
       19    16      0.47168322E+02      0.4944309600E-02
       19    17      0.47168322E+02      0.4944309600E-02
       19    18      0.57302956E+02      0.7731732052E-02
       19    19      0.79931973E+02      0.1807384614E-02
       19    20      0.79931973E+02      0.1807384614E-02
       19    21      0.87825688E+02      0.5183946627E-02
       19    22      0.93299780E+02      0.7753773545E+00
       19    23      0.10030943E+03      0.4573853963E+01
       19    24      0.12760321E+03      0.1350296499E-01
       20     1      0.29221989E+01      0.2060391696E-02
       20     2      0.29457515E+01      0.3517971572E-02
       20     3      0.29457515E+01      0.3517971572E-02
       20     4      0.67564638E+01      0.5174031402E-01
       20     5      0.17671214E+02      0.1841983039E+00
       20     6      0.26037500E+02      0.4338504356E-02
       20     7      0.26037500E+02      0.4338504356E-02
       20     8      0.29064314E+02      0.6704000722E-02
       20     9      0.29064314E+02      0.6704000722E-02
       20    10      0.30947824E+02      0.1885718801E+00
       20    11      0.36635693E+02      0.8018167174E-02
       20    12      0.36635693E+02      0.8018167174E-02
       20    13      0.39440671E+02      0.4412592059E-02
       20    14      0.39440671E+02      0.4412592059E-02
       20    15      0.41623337E+02      0.1057652301E+01
       20    16      0.47259835E+02      0.4943771704E-02
       20    17      0.47259835E+02      0.4943771704E-02
       20    18      0.57299685E+02      0.7956567857E-02
       20    19      0.79914294E+02      0.1711231775E-02
       20    20      0.79914294E+02      0.1711231775E-02
       20    21      0.87789739E+02      0.4931214873E-02
       20    22      0.93440635E+02      0.6903455486E+00
       20    23      0.10087860E+03      0.4286139170E+01
       20    24      0.12764367E+03      0.1441221076E-01
       21     1      0.29145422E+01      0.2352126697E-02
       21     2      0.30813611E+01      0.3731016592E-02
       21     3      0.30813611E+01      0.3731016592E-02
       21     4      0.71426868E+01      0.5544049885E-01
       21     5      0.17868709E+02      0.1784352534E+00
       21     6      0.26081352E+02      0.4754409567E-02
       21     7      0.26081352E+02      0.4754409567E-02
       21     8      0.28921064E+02      0.6437571379E-02
       21     9      0.28921064E+02      0.6437571379E-02
       21    10      0.30955813E+02      0.2080865758E+00
       21    11      0.36638772E+02      0.6773357958E-02
       21    12      0.36638772E+02      0.6773357958E-02
       21    13      0.39432372E+02      0.3799021162E-02
       21    14      0.39432372E+02      0.3799021162E-02
       21    15      0.41835267E+02      0.1173112833E+01
       21    16      0.47353948E+02      0.5014941777E-02
       21    17      0.47353948E+02      0.5014941777E-02
       21    18      0.57296253E+02      0.8189411388E-02
       21    19      0.79895788E+02      0.1625428308E-02
       21    20      0.79895788E+02      0.1625428308E-02
       21    21      0.87751998E+02      0.5306772485E-02
       21    22      0.93590100E+02      0.6272847267E+00
       21    23      0.10146264E+03      0.4075577114E+01
       21    24      0.12768633E+03      0.1497954814E-01
       22     1      0.29064691E+01      0.2088204892E-02
       22     2      0.32142695E+01      0.3819572571E-02
       22     3      0.32142695E+01      0.3819572571E-02
       22     4      0.75289873E+01      0.6520881037E-01
       22     5      0.18070809E+02      0.1812803672E+00
       22     6      0.26117521E+02      0.5012797928E-02
       22     7      0.26117521E+02      0.5012797928E-02
       22     8      0.28781925E+02      0.6277670154E-02
       22     9      0.28781925E+02      0.6277670154E-02
       22    10      0.30964078E+02      0.2150022314E+00
       22    11      0.36641626E+02      0.7331169439E-02