
&CONTROL
    calculation   = 'vc-relax'
    restart_mode  = 'from_scratch'
    prefix        = 'Landau_32'
    pseudo_dir    = '/cluster/scratch/mnoe/QE/pps'
    outdir        = './'
    forc_conv_thr = 1.0d-7
    etot_conv_thr = 1.0d-7

/
&SYSTEM
    ibrav       = 0
    nat         = 32
    ntyp        = 2
    ecutwfc     = 120
    occupations = 'smearing'
    degauss     = 7.35d-4
    tot_charge  = -0.0
/
&ELECTRONS
    conv_thr    = 1.0d-8
    diagonalization = 'david'
/


&IONS
ion_dynamics = 'bfgs'
/

&CELL
cell_dynamics = 'bfgs'
cell_dofree = 'all'
/
CELL_PARAMETERS angstrom
        7.3236460686         0.0000000000         0.0000000000
        0.0000000000         7.7495899200         0.0000000000
        0.0000000000         0.0000000000         7.3236460686

ATOMIC_SPECIES
W 183.84 W_ONCV_LDA-4.0.upf
O 15.9994 O_ONCV_LDA-3.0.upf

ATOMIC_POSITIONS crystal
W 0.2426083771725378	0.26929334247986414	0.006980089631750682	 0 0 0
W 0.7573915492351254	0.7307066575201359	-0.006980080442165567	 0 0 0
W 0.2573916228274622	0.23070667669513784	0.5069800936272225	 0 0 0
W 0.7426083171648051	0.7692934409049316	0.49301990637277754	 0 0 0
W 0.7573915492351254	0.26929334247986414	0.49301990637277754	 0 0 0
W 0.2426083771725378	0.7307066575201359	0.5069800936272225	 0 0 0
W 0.7426083171648051	0.23070667669513784	-0.006980080442165567	 0 0 0
W 0.2573916228274622	0.7692934409049316	0.006980089631750682	 0 0 0
O 0.23636344955716854	0.0048964689919109355	0.002169541186655124	 0 0 0
O 0.7636364640649849	-0.004896533666956597	-0.002169543983485367	 0 0 0
O 0.2636365440500766	0.49510356475811085	0.5021695307984284	 0 0 0
O 0.7363634023349456	0.5048965336669566	0.4978304560165146	 0 0 0
O 0.7636364640649849	0.0048964689919109355	0.4978304560165146	 0 0 0
O 0.23636344955716854	-0.004896533666956597	0.5021695307984284	 0 0 0
O 0.7363634023349456	0.49510356475811085	-0.002169543983485367	 0 0 0
O 0.2636365440500766	0.5048965336669566	0.002169541186655124	 0 0 0
O 0.5020217119264833	0.23601185363254978	0.4802679615541445	 0 0 0
O 0.4979782880735167	0.7639881999856906	0.5197321432209271	 0 0 0
O -0.0020217251115402604	0.2639881343810348	0.9802679945541445	 0 0 0
O 0.002021691949124326	0.7360119192372055	0.019731937545794564	 0 0 0
O 0.4979782880735167	0.23601185363254978	0.019731937545794564	 0 0 0
O 0.5020217119264833	0.7639881999856906	0.9802679945541445	 0 0 0
O 0.002021691949124326	0.2639881343810348	0.5197321432209271	 0 0 0
O -0.0020217251115402604	0.7360119192372055	0.4802679615541445	 0 0 0
O 0.7302679235791076	0.2469474603449424	0.7469354119240779	 0 0 0
O 0.2697319716458205	0.7530526056592606	0.25306452127588736	 0 0 0
O 0.7697322100209618	0.2530525396550576	0.24693550469467937	 0 0 0
O 0.23026797755414452	0.7469475139631828	0.7530644544758526	 0 0 0
O 0.2697319716458205	0.2469474603449424	0.7530644544758526	 0 0 0
O 0.7302679235791076	0.7530526056592606	0.24693550469467937	 0 0 0
O 0.23026797755414452	0.2530525396550576	0.25306452127588736	 0 0 0
O 0.7697322100209618	0.7469475139631828	0.7469354119240779	 0 0 0

K_POINTS automatic
6 6 6 0 0 0
