
&CONTROL
    calculation   = 'vc-relax'
    restart_mode  = 'from_scratch'
    prefix        = 'Landau_15'
    pseudo_dir    = '/cluster/scratch/mnoe/QE/pps'
    outdir        = './'
    forc_conv_thr = 1.0d-7
    etot_conv_thr = 1.0d-7

/
&SYSTEM
    ibrav       = 0
    nat         = 32
    ntyp        = 2
    ecutwfc     = 120
    occupations = 'smearing'
    degauss     = 7.35d-4
    tot_charge  = -0.0
/
&ELECTRONS
    conv_thr    = 1.0d-8
    diagonalization = 'david'
/


&IONS
ion_dynamics = 'bfgs'
/

&CELL
cell_dynamics = 'bfgs'
cell_dofree = 'all'
/
CELL_PARAMETERS angstrom
        7.3236460686         0.0000000000         0.0000000000
        0.0000000000         7.7495899200         0.0000000000
        0.0000000000         0.0000000000         7.3236460686

ATOMIC_SPECIES
W 183.84 W_ONCV_LDA-4.0.upf
O 15.9994 O_ONCV_LDA-3.0.upf

ATOMIC_POSITIONS crystal
W 0.256500009	0.28027015149600415	-0.993160029	 0 0 0
W 0.7431600204424728	0.7197298485039959	-0.993500007	 0 0 0
W 0.243499991	0.21972986403884132	-0.493159997	 0 0 0
W 0.7568399944424727	0.7802701680762131	-0.49349999099999997	 0 0 0
W 0.7434999984424727	0.28027015149600415	-0.506839987	 0 0 0
W 0.256839987	0.7197298485039959	-0.506500009	 0 0 0
W 0.7565000174424727	0.21972986403884132	-1.006840003	 0 0 0
W 0.243159997	0.7802701680762131	-1.0065000259999999	 0 0 0
O 0.26385999	0.00789140998682544	-0.986209994	 0 0 0
O 0.7362099854424727	0.9921085917814201	-0.986139993	 0 0 0
O 0.236139993	0.49210860836162906	-0.486210011	 0 0 0
O 0.7637900294424728	0.5078914082185799	-0.486139993	 0 0 0
O 0.7361399844424728	0.00789140998682544	-0.513790006	 0 0 0
O 0.263790006	0.9921085917814201	-0.51385999	 0 0 0
O 0.7638599654424728	0.49210860836162906	-1.013790038	 0 0 0
O 0.236210011	0.5078914082185799	-1.013859974	 0 0 0
O 0.497109996	0.266549993	-0.5466535209735348	 0 0 0
O 0.501889997	0.7382800220226817	-0.45334644537656527	 0 0 0
O 0.002889991	0.233449992	-1.0466535209735348	 0 0 0
O 0.99810997	0.7617199940226818	-0.9533464620021377	 0 0 0
O 0.502890004	0.266549993	-0.9533464620021377	 0 0 0
O 0.498110003	0.7382800220226817	-1.0466535209735348	 0 0 0
O 0.997110029	0.233449992	-0.45334644537656527	 0 0 0
O 0.001890004	0.7617199940226818	-0.5466535209735348	 0 0 0
O 0.7033464379340925	0.238279998	-0.2518900125575272	 0 0 0
O 0.2966535124160076	0.7334500150226817	-0.752890004	 0 0 0
O 0.7966535471809619	0.261719986	-0.751889997	 0 0 0
O 0.2033464630264651	0.7665500010226818	-0.25288999955752717	 0 0 0
O 0.2966535124160076	0.238279998	-1.2481099785575271	 0 0 0
O 0.7033464379340925	0.7334500150226817	-0.747109996	 0 0 0
O 0.2033464630264651	0.261719986	-0.7481100030000001	 0 0 0
O 0.7966535471809619	0.7665500010226818	-1.247110037557527	 0 0 0

K_POINTS automatic
6 6 6 0 0 0
