
&CONTROL
    calculation   = 'vc-relax'
    restart_mode  = 'from_scratch'
    prefix        = 'Landau_4'
    pseudo_dir    = '/cluster/scratch/mnoe/QE/pps'
    outdir        = './'
    forc_conv_thr = 1.0d-7
    etot_conv_thr = 1.0d-7

/
&SYSTEM
    ibrav       = 0
    nat         = 32
    ntyp        = 2
    ecutwfc     = 120
    occupations = 'smearing'
    degauss     = 7.35d-4
    tot_charge  = -0.0
/
&ELECTRONS
    conv_thr    = 1.0d-8
    diagonalization = 'david'
/


&IONS
ion_dynamics = 'bfgs'
/

&CELL
cell_dynamics = 'bfgs'
cell_dofree = 'all'
/
CELL_PARAMETERS angstrom
        7.3236460686         0.0000000000         0.0000000000
        0.0000000000         7.7495899200         0.0000000000
        0.0000000000         0.0000000000         7.3236460686

ATOMIC_SPECIES
W 183.84 W_ONCV_LDA-4.0.upf
O 15.9994 O_ONCV_LDA-3.0.upf

ATOMIC_POSITIONS crystal
W 0.251729988	0.27965853128233564	-0.998180053	 0 0 0
W 0.7481800411913107	0.7203414687176644	-0.998270045	 0 0 0
W 0.248270012	0.2203414844557074	-0.498180004	 0 0 0
W 0.7518199681913107	0.7796585541616714	-0.498270012	 0 0 0
W 0.7482700331913107	0.27965853128233564	-0.501819996	 0 0 0
W 0.251819996	0.7203414687176644	-0.501729988	 0 0 0
W 0.7517299761913107	0.2203414844557074	-1.00181998	 0 0 0
W 0.248180004	0.7796585541616714	-1.0017299880000001	 0 0 0
O 0.253700014	0.007724786502144452	-0.996319977	 0 0 0
O 0.7463199651913106	0.9922752109989507	-0.996299986	 0 0 0
O 0.246300002	0.4922752338782864	-0.49631999299999996	 0 0 0
O 0.7536799791913107	0.5077247890010493	-0.496300002	 0 0 0
O 0.7462999741913107	0.007724786502144452	-0.503679991	 0 0 0
O 0.253679991	0.9922752109989507	-0.503700014	 0 0 0
O 0.7537000351913107	0.4922752338782864	-1.003679991	 0 0 0
O 0.246319993	0.5077247890010493	-1.0037000470000002	 0 0 0
O 0.49923002	0.254410001	-0.545157989210363	 0 0 0
O 0.500499971	0.7468799930706463	-0.4548419704342151	 0 0 0
O 0.000769973	0.245589999	-1.0451579892103628	 0 0 0
O 0.999500029	0.7531200290706462	-0.9548419994548434	 0 0 0
O 0.50076998	0.254410001	-0.9548419994548434	 0 0 0
O 0.499499997	0.7468799930706463	-1.0451579892103628	 0 0 0
O 0.999230053	0.245589999	-0.4548419704342151	 0 0 0
O 0.000499994	0.7531200290706462	-0.545157989210363	 0 0 0
O 0.7048419662429045	0.246879998	-0.2505000058086894	 0 0 0
O 0.29515797740167354	0.7455900100706463	-0.75076998	 0 0 0
O 0.7951580253744743	0.253120002	-0.750499971	 0 0 0
O 0.204841994789637	0.7544100120706463	-0.2507699848086894	 0 0 0
O 0.29515797740167354	0.246879998	-1.2495000408086894	 0 0 0
O 0.7048419662429045	0.7455900100706463	-0.7492300199999999	 0 0 0
O 0.204841994789637	0.253120002	-0.749499997	 0 0 0
O 0.7951580253744743	0.7544100120706463	-1.2492300648086894	 0 0 0

K_POINTS automatic
6 6 6 0 0 0
