&CONTROL
    calculation   = 'scf'
    restart_mode  = 'from_scratch'
    prefix        = 'Landau_5'
    pseudo_dir    = '/cluster/scratch/mnoe/QE/pps'
    outdir        = './'
/
&SYSTEM
    ibrav       = 0
    nat         = 32
    ntyp        = 2
    ecutwfc     = 120
    occupations = 'smearing'
    degauss     = 7.35d-4
    tot_charge  = -1.0
/
&ELECTRONS
    conv_thr    = 1.0d-8
    diagonalization = 'david'
/

CELL_PARAMETERS angstrom
   7.349142360   0.000000000   0.000000000
   0.000000000   7.717699282   0.000000000
   0.000000000   0.000000000   7.351102574

ATOMIC_SPECIES
W 183.84 W_ONCV_LDA-4.0.upf
O 15.9994 O_ONCV_LDA-3.0.upf

ATOMIC_POSITIONS crystal
W 0.24246662765532398	0.28038649660265724	0.0012876602353499365	
W 0.7517166210664457	0.7196135033973428	-0.007447334514650076	
W 0.25753337234467605	0.21961351888688352	0.5012876599052241	
W 0.7482833670972441	0.7803864807784204	0.49255265440522406	
W 0.7575333585972441	0.28038649660265724	0.49871234009477594	
W 0.24828337234467604	0.7196135033973428	0.5074473455947759	
W 0.7424666295664457	0.21961351888688352	-0.00128765448534995	
W 0.251716627655324	0.7803864807784204	0.0074473402646500625	
O 0.24056352009021442	0.00791857315841089	-0.0043243878604248545	
O 0.7576285065075624	-0.007918560438766615	-0.007039389610424844	
O 0.25943647041601187	0.49208142373699665	0.4956756001458014	
O 0.7423714766617876	0.5079185604387666	0.4929606048958014	
O 0.7594364586617877	0.00791857315841089	0.5043243942678465	
O 0.24237146791601186	-0.007918560438766615	0.5070393895178464	
O 0.7405635245075625	0.49208142373699665	0.004324386110424865	
O 0.2576285225902144	0.5079185604387666	0.007039387860424855	
O 0.5025418858649531	0.23997560872705934	0.45314301706466903	
O 0.500011881864953	0.7574806068173404	0.5468569660901756	
O -0.002541883293883602	0.2600243837729407	0.953143050064669	
O -1.1883543883598174e-05	0.7425194030240395	0.046856985228189964	
O 0.4974581141350469	0.23997560872705934	0.046856985228189964	
O 0.49998811813504696	0.7574806068173404	0.953143050064669	
O 0.002541873364953056	0.2600243837729407	0.5468569660901756	
O 1.1873614953052374e-05	0.7425194030240395	0.45314301706466903	
O 0.7031430417424763	0.2539183898254312	0.7489248811304898	
O 0.29685697510267894	0.757738400160052	0.25275987646936804	
O 0.7968569739228277	0.24608160518022906	0.24892489971936804	
O 0.20314303306466905	0.7422616097648499	0.7527598741304898	
O 0.29685697510267894	0.2539183898254312	0.7510751170218796	
O 0.7031430417424763	0.757738400160052	0.24724013978063197	
O 0.20314303306466905	0.24608160518022906	0.25107511653063197	
O 0.7968569739228277	0.7422616097648499	0.7472401240218796	

K_POINTS automatic
6 6 6 0 0 0
