&CONTROL
    calculation   = 'scf'
    restart_mode  = 'from_scratch'
    prefix        = 'Landau_4'
    pseudo_dir    = '/cluster/scratch/mnoe/QE/pps'
    outdir        = './'
/
&SYSTEM
    ibrav       = 0
    nat         = 32
    ntyp        = 2
    ecutwfc     = 120
    occupations = 'smearing'
    degauss     = 7.35d-4
    tot_charge  = -0.6
/
&ELECTRONS
    conv_thr    = 1.0d-8
    diagonalization = 'david'
/

CELL_PARAMETERS angstrom
   7.337561954   0.000000000   0.000000000
   0.000000000   7.726775076   0.000000000
   0.000000000   0.000000000   7.337561954

ATOMIC_SPECIES
W 183.84 W_ONCV_LDA-4.0.upf
O 15.9994 O_ONCV_LDA-3.0.upf

ATOMIC_POSITIONS crystal
W 0.253470003	0.2810214253312022	-0.996349996	
W 0.7463499914359855	0.7189785746687978	-0.99652998	
W 0.246529997	0.2189785899540487	-0.496350012	
W 0.7536500324359855	0.7810214341739803	-0.496529997	
W 0.7465299754359855	0.2810214253312022	-0.503650004	
W 0.253650004	0.7189785746687978	-0.503470003	
W 0.7534699824359855	0.2189785899540487	-1.0036500369999999	
W 0.246350012	0.7810214341739803	-1.003469987	
O 0.257390016	0.008096079259640234	-0.992640003	
O 0.7426399984359855	0.9919039277500907	-0.992609984	
O 0.24261	0.4919039365928688	-0.492640003	
O 0.7573599604359855	0.5080960722499093	-0.49261	
O 0.7426099794359855	0.008096079259640234	-0.507359981	
O 0.257359981	0.9919039277500907	-0.507390016	
O 0.7573900444359855	0.4919039365928688	-1.007359965	
O 0.242640003	0.5080960722499093	-1.007390049	
O 0.498460041	0.25883	-0.5484905333192185	
O 0.501010002	0.7437500012787636	-0.4515094412675015	
O 0.001540005	0.24117	-1.0484905333192185	
O 0.998990031	0.7562500072787636	-0.9515094426678068	
O 0.501539992	0.25883	-0.9515094426678068	
O 0.498989998	0.7437500012787636	-1.0484905333192185	
O 0.998459976	0.24117	-0.4515094412675015	
O 0.001010001	0.7562500072787636	-0.5484905333192185	
O 0.701509429831516	0.243750012	-0.2510100055640145	
O 0.29849052875520404	0.7411699732787635	-0.751539992	
O 0.798490547296513	0.256249988	-0.751010002	
O 0.2015094506807814	0.7588300352787636	-0.2515400095640145	
O 0.29849052875520404	0.243750012	-1.2489900355640144	
O 0.701509429831516	0.7411699732787635	-0.748460041	
O 0.2015094506807814	0.256249988	-0.748989998	
O 0.798490547296513	0.7588300352787636	-1.2484599805640144	

K_POINTS automatic
6 6 6 0 0 0
