
&CONTROL
    calculation   = 'vc-relax'
    restart_mode  = 'from_scratch'
    prefix        = 'Landau_20'
    pseudo_dir    = '/cluster/scratch/mnoe/QE/pps'
    outdir        = './'
    forc_conv_thr = 1.0d-7
    etot_conv_thr = 1.0d-7

/
&SYSTEM
    ibrav       = 0
    nat         = 32
    ntyp        = 2
    ecutwfc     = 120
    occupations = 'smearing'
    degauss     = 7.35d-4
    tot_charge  = -0.0
/
&ELECTRONS
    conv_thr    = 1.0d-8
    diagonalization = 'david'
/


&IONS
ion_dynamics = 'bfgs'
/

&CELL
cell_dynamics = 'bfgs'
cell_dofree = 'all'
/
CELL_PARAMETERS angstrom
        7.3236460686         0.0000000000         0.0000000000
        0.0000000000         7.7495899200         0.0000000000
        0.0000000000         0.0000000000         7.3236460686

ATOMIC_SPECIES
W 183.84 W_ONCV_LDA-4.0.upf
O 15.9994 O_ONCV_LDA-3.0.upf

ATOMIC_POSITIONS crystal
W 0.25	0.2790720707179168	0.0	 0 0 0
W 0.7499999851803132	0.7209279292820833	0.0	 0 0 0
W 0.25	0.22092794520831363	0.5	 0 0 0
W 0.7499999851803132	0.77907206843106	0.5	 0 0 0
W 0.7499999851803132	0.2790720707179168	0.5	 0 0 0
W 0.25	0.7209279292820833	0.5	 0 0 0
W 0.7499999851803132	0.22092794520831363	0.0	 0 0 0
W 0.25	0.77907206843106	0.0	 0 0 0
O 0.25	0.007560484566216219	0.0	 0 0 0
O 0.7499999851803132	0.9924395189829448	0.0	 0 0 0
O 0.25	0.49243951669608804	0.5	 0 0 0
O 0.7499999851803132	0.5075604810170552	0.5	 0 0 0
O 0.7499999851803132	0.007560484566216219	0.5	 0 0 0
O 0.25	0.9924395189829448	0.5	 0 0 0
O 0.7499999851803132	0.49243951669608804	0.0	 0 0 0
O 0.25	0.5075604810170552	0.0	 0 0 0
O 0.5	0.25	0.4563570469757704	 0 0 0
O 0.5	0.7499999988934564	0.5436429505898337	 0 0 0
O 0.0	0.25	0.9563570799757704	 0 0 0
O 0.0	0.7499999988934564	0.043642943089777654	 0 0 0
O 0.5	0.25	0.043642943089777654	 0 0 0
O 0.5	0.7499999988934564	0.9563570799757704	 0 0 0
O 0.0	0.25	0.5436429505898337	 0 0 0
O 0.0	0.7499999988934564	0.4563570469757704	 0 0 0
O 0.7063570642298531	0.25	0.7499999851803132	 0 0 0
O 0.29364293820454274	0.7499999988934564	0.25	 0 0 0
O 0.7936429654095205	0.25	0.25	 0 0 0
O 0.2063570629757704	0.7499999988934564	0.7499999851803132	 0 0 0
O 0.29364293820454274	0.25	0.7499999851803132	 0 0 0
O 0.7063570642298531	0.7499999988934564	0.25	 0 0 0
O 0.2063570629757704	0.25	0.25	 0 0 0
O 0.7936429654095205	0.7499999988934564	0.7499999851803132	 0 0 0

K_POINTS automatic
6 6 6 0 0 0
