
&CONTROL
    calculation   = 'vc-relax'
    restart_mode  = 'from_scratch'
    prefix        = 'Landau_1'
    pseudo_dir    = '/cluster/scratch/mnoe/QE/pps'
    outdir        = './'
    forc_conv_thr = 1.0d-7
    etot_conv_thr = 1.0d-7

/
&SYSTEM
    ibrav       = 0
    nat         = 32
    ntyp        = 2
    ecutwfc     = 120
    occupations = 'smearing'
    degauss     = 7.35d-4
    tot_charge  = -0.0
/
&ELECTRONS
    conv_thr    = 1.0d-8
    diagonalization = 'david'
/


&IONS
ion_dynamics = 'bfgs'
/

&CELL
cell_dynamics = 'bfgs'
cell_dofree = 'all'
/
CELL_PARAMETERS angstrom
        7.3236460686         0.0000000000         0.0000000000
        0.0000000000         7.7495899200         0.0000000000
        0.0000000000         0.0000000000         7.3236460686

ATOMIC_SPECIES
W 183.84 W_ONCV_LDA-4.0.upf
O 15.9994 O_ONCV_LDA-3.0.upf

ATOMIC_POSITIONS crystal
W 0.249540001	0.2817114317409725	0.00044	 0 0 0
W 0.7504600152102464	0.7182885682590275	0.999559974	 0 0 0
W 0.250459999	0.2182885833083871	0.500439994	 0 0 0
W 0.7495399832102464	0.7817114022711201	0.499560006	 0 0 0
W 0.7504600152102464	0.2817114317409725	0.499560006	 0 0 0
W 0.249540001	0.7182885682590275	0.500439994	 0 0 0
W 0.7495399832102464	0.2182885833083871	0.999559974	 0 0 0
W 0.250459999	0.7817114022711201	0.00044	 0 0 0
O 0.249149997	0.00827952478294639	0.00014	 0 0 0
O 0.7508500352102464	0.991720497180502	0.999860009	 0 0 0
O 0.25085002	0.4917204677106496	0.500140023	 0 0 0
O 0.7491499632102464	0.508279502819498	0.499859977	 0 0 0
O 0.7508500352102464	0.00827952478294639	0.499859977	 0 0 0
O 0.249149997	0.991720497180502	0.500140023	 0 0 0
O 0.7491499632102464	0.4917204677106496	0.999860009	 0 0 0
O 0.25085002	0.508279502819498	0.00014	 0 0 0
O 0.500129996	0.249119995	0.44990328996080464	 0 0 0
O 0.499870004	0.7508800217403939	0.5500966786680621	 0 0 0
O 0.999869972	0.250880005	0.9499033229608046	 0 0 0
O 0.000129938	0.7491200107403939	0.05009672465712658	 0 0 0
O 0.499870004	0.249119995	0.05009672465712658	 0 0 0
O 0.500129996	0.7508800217403939	0.9499033229608046	 0 0 0
O 0.000129938	0.250880005	0.5500966786680621	 0 0 0
O 0.999869972	0.7491200107403939	0.44990328996080464	 0 0 0
O 0.6999033221216915	0.249809988	0.7498100022102464	 0 0 0
O 0.30009670924944176	0.750189997740394	0.250190013	 0 0 0
O 0.8000966794578157	0.250190012	0.249809987	 0 0 0
O 0.19990330596080466	0.7498099737403939	0.7501899962102464	 0 0 0
O 0.30009670924944176	0.249809988	0.7501899962102464	 0 0 0
O 0.6999033221216915	0.750189997740394	0.249809987	 0 0 0
O 0.19990330596080466	0.250190012	0.250190013	 0 0 0
O 0.8000966794578157	0.7498099737403939	0.7498100022102464	 0 0 0

K_POINTS automatic
6 6 6 0 0 0
