
&CONTROL
    calculation   = 'vc-relax'
    restart_mode  = 'from_scratch'
    prefix        = 'Landau_32'
    pseudo_dir    = '/cluster/scratch/mnoe/QE/pps'
    outdir        = './'
    forc_conv_thr = 1.0d-7
    etot_conv_thr = 1.0d-7

/
&SYSTEM
    ibrav       = 0
    nat         = 32
    ntyp        = 2
    ecutwfc     = 120
    occupations = 'smearing'
    degauss     = 7.35d-4
    tot_charge  = -0.0
/
&ELECTRONS
    conv_thr    = 1.0d-8
    diagonalization = 'david'
/


&IONS
ion_dynamics = 'bfgs'
/

&CELL
cell_dynamics = 'bfgs'
cell_dofree = 'all'
/
CELL_PARAMETERS angstrom
        7.3236460686         0.0000000000         0.0000000000
        0.0000000000         7.7495899200         0.0000000000
        0.0000000000         0.0000000000         7.3236460686

ATOMIC_SPECIES
W 183.84 W_ONCV_LDA-4.0.upf
O 15.9994 O_ONCV_LDA-3.0.upf

ATOMIC_POSITIONS crystal
0.2352	0.28475610872992	0.013980001	 0 0 0
0.7648	0.7152438912700799	0.98602002	 0 0 0
0.264800016	0.21524390243247998	0.51397998	 0 0 0
0.7352	0.7847560777299201	0.486019987	 0 0 0
0.7648	0.28475610872992	0.486019987	 0 0 0
0.2352	0.7152438912700799	0.51397998	 0 0 0
0.7352	0.21524390243247998	0.98602002	 0 0 0
0.264800016	0.7847560777299201	0.013980001	 0 0 0
0.222699997	0.013800093055839999	0.00435	 0 0 0
0.777299987	0.98619993685184	0.995650004	 0 0 0
0.277299987	0.48619989792080004	0.504349996	 0 0 0
0.722700013	0.51380007901024	0.495650004	 0 0 0
0.777299987	0.013800093055839999	0.495650004	 0 0 0
0.222699997	0.98619993685184	0.504349996	 0 0 0
0.722700013	0.48619989792080004	0.995650004	 0 0 0
0.277299987	0.51380007901024	0.00435	 0 0 0
0.504050025	0.221990001	0.4645092126336	 0 0 0
0.495949975	0.778010015	0.535490770996	 0 0 0
0.995949975	0.278010015	0.96450923335328	 0 0 0
0.004050016	0.721990016	0.03549081462336	 0 0 0
0.495949975	0.221990001	0.03549081462336	 0 0 0
0.504050025	0.778010015	0.96450923335328	 0 0 0
0.004050016	0.278010015	0.535490770996	 0 0 0
0.995949975	0.721990016	0.4645092126336	 0 0 0
0.71450925407632	0.243880005	0.743860013	 0 0 0
0.28549079964672003	0.756119995	0.256139987	 0 0 0
0.78549076255328	0.256119995	0.243860013	 0 0 0
0.21450922888944002	0.743880036	0.756139987	 0 0 0
0.28549079964672003	0.243880005	0.756139987	 0 0 0
0.71450925407632	0.756119995	0.243860013	 0 0 0
0.21450922888944002	0.256119995	0.256139987	 0 0 0
0.78549076255328	0.743880036	0.743860013	 0 0 0

K_POINTS automatic
6 6 6 0 0 0
