
&CONTROL
    calculation   = 'vc-relax'
    restart_mode  = 'from_scratch'
    prefix        = 'Landau_30'
    pseudo_dir    = '/cluster/scratch/mnoe/QE/pps'
    outdir        = './'
    forc_conv_thr = 1.0d-7
    etot_conv_thr = 1.0d-7

/
&SYSTEM
    ibrav       = 0
    nat         = 32
    ntyp        = 2
    ecutwfc     = 120
    occupations = 'smearing'
    degauss     = 7.35d-4
    tot_charge  = -0.0
/
&ELECTRONS
    conv_thr    = 1.0d-8
    diagonalization = 'david'
/


&IONS
ion_dynamics = 'bfgs'
/

&CELL
cell_dynamics = 'bfgs'
cell_dofree = 'all'
/
CELL_PARAMETERS angstrom
        7.3236460686         0.0000000000         0.0000000000
        0.0000000000         7.7495899200         0.0000000000
        0.0000000000         0.0000000000         7.3236460686

ATOMIC_SPECIES
W 183.84 W_ONCV_LDA-4.0.upf
O 15.9994 O_ONCV_LDA-3.0.upf

ATOMIC_POSITIONS crystal
W 0.25	0.2699205366522613	0.0	 0 0 0
W 0.7499999365339133	0.7300794633477388	0.0	 0 0 0
W 0.25	0.23007948231436895	0.5	 0 0 0
W 0.7499999365339133	0.7699206286178045	0.5	 0 0 0
W 0.7499999365339133	0.2699205366522613	0.5	 0 0 0
W 0.25	0.7300794633477388	0.5	 0 0 0
W 0.7499999365339133	0.23007948231436895	0.0	 0 0 0
W 0.25	0.7699206286178045	0.0	 0 0 0
O 0.25	0.0050673352848177805	0.0	 0 0 0
O 0.7499999365339133	0.9949326044159433	0.0	 0 0 0
O 0.25	0.4949326963814865	0.5	 0 0 0
O 0.7499999365339133	0.5050673955840567	0.5	 0 0 0
O 0.7499999365339133	0.0050673352848177805	0.5	 0 0 0
O 0.25	0.9949326044159433	0.5	 0 0 0
O 0.7499999365339133	0.4949326963814865	0.0	 0 0 0
O 0.25	0.5050673955840567	0.0	 0 0 0
O 0.5	0.25	0.4787343483975906	 0 0 0
O 0.5	0.7500000444994565	0.5212657495012132	 0 0 0
O 0.0	0.25	0.9787343813975906	 0 0 0
O 0.0	0.7500000444994565	0.02126555653675742	 0 0 0
O 0.5	0.25	0.02126555653675742	 0 0 0
O 0.5	0.7500000444994565	0.9787343813975906	 0 0 0
O 0.0	0.25	0.5212657495012132	 0 0 0
O 0.0	0.7500000444994565	0.4787343483975906	 0 0 0
O 0.7287343139648735	0.25	0.7499999365339133	 0 0 0
O 0.2712655881363224	0.7500000444994565	0.25	 0 0 0
O 0.7712658129673	0.25	0.25	 0 0 0
O 0.22873436439759062	0.7500000444994565	0.7499999365339133	 0 0 0
O 0.2712655881363224	0.25	0.7499999365339133	 0 0 0
O 0.7287343139648735	0.7500000444994565	0.25	 0 0 0
O 0.22873436439759062	0.25	0.25	 0 0 0
O 0.7712658129673	0.7500000444994565	0.7499999365339133	 0 0 0

K_POINTS automatic
6 6 6 0 0 0
