&CONTROL
    calculation   = 'scf'
    restart_mode  = 'from_scratch'
    prefix        = 'Landau_5'
    pseudo_dir    = '/cluster/scratch/mnoe/QE/pps'
    outdir        = './'
/
&SYSTEM
    ibrav       = 0
    nat         = 32
    ntyp        = 2
    ecutwfc     = 120
    occupations = 'smearing'
    degauss     = 7.35d-4
    tot_charge  = -0.6
/
&ELECTRONS
    conv_thr    = 1.0d-8
    diagonalization = 'david'
/

CELL_PARAMETERS angstrom
   7.387489446   0.000000000   0.000000000
   0.000000000   7.699153565   0.000000000
   0.000000000   0.000000000   7.386535305

ATOMIC_SPECIES
W 183.84 W_ONCV_LDA-4.0.upf
O 15.9994 O_ONCV_LDA-3.0.upf

ATOMIC_POSITIONS crystal
W 0.2462284040674419	0.2779849881418522	-0.0016808247242554274	
W 0.7485377305124761	0.7220150118581479	-0.003861592333770896	
W 0.2537715959325581	0.22201502814553795	0.49831917335337245	
W 0.7514622317363282	0.777984997050948	0.4961384030600257	
W 0.7537715727753133	0.2779849881418522	0.5016808266466276	
W 0.251462252771474	0.7220150118581479	0.5038615969399742	
W 0.7462283894734911	0.22201502814553795	0.0016808261597930647	
W 0.248537747228526	0.777984997050948	0.0038615937693085335	
O 0.2470563970005007	0.007264331033497869	-0.00477359416537258	
O 0.7513168010255201	-0.007264335068691818	-0.005451418027393537	
O 0.25294359705762176	0.492735673840404	0.49522639926860307	
O 0.7486831567294273	0.5072643350686918	0.4945485770293638	
O 0.7529435782943703	0.007264331033497869	0.5047736010684362	
O 0.24868317037467497	-0.007264335068691818	0.5054514233076755	
O 0.747056379460577	0.492735673840404	0.004773593728469822	
O 0.2513168236834475	0.5072643350686918	0.005451417590490779	
O 0.5014647461131118	0.2466704268411621	0.4590151777656997	
O 0.5008331085525805	0.7510407101059858	0.5409848317181765	
O -0.0014647384361061635	0.2533295712863975	0.9590152107656997	
O -0.0008331019366243253	0.7489593113981098	0.040984802187374964	
O 0.4985352538868882	0.2466704268411621	0.040984802187374964	
O 0.4991668914474196	0.7510407101059858	0.9590152107656997	
O 0.0014647429923778077	0.2533295712863975	0.5409848317181765	
O 0.0008331064928959696	0.7489593113981098	0.4590151777656997	
O 0.7090151888800665	0.2547674784005352	0.7502792296956181	
O 0.2909848016360572	0.7557211883844378	0.2512366847946569	
O 0.7909848523164195	0.2452325171056078	0.2502792494075727	
O 0.20901519376569974	0.7442788330322773	0.7512366691396566	
O 0.2909848016360572	0.2547674784005352	0.7497207415409002	
O 0.7090151888800665	0.7557211883844378	0.24876331926229733	
O 0.20901519376569974	0.2452325171056078	0.24972075464938154	
O 0.7909848523164195	0.7442788330322773	0.7487633020968617	

K_POINTS automatic
6 6 6 0 0 0
