
&CONTROL
    calculation   = 'vc-relax'
    restart_mode  = 'from_scratch'
    prefix        = 'Landau_29'
    pseudo_dir    = '/cluster/scratch/mnoe/QE/pps'
    outdir        = './'
    forc_conv_thr = 1.0d-7
    etot_conv_thr = 1.0d-7

/
&SYSTEM
    ibrav       = 0
    nat         = 32
    ntyp        = 2
    ecutwfc     = 120
    occupations = 'smearing'
    degauss     = 7.35d-4
    tot_charge  = -0.0
/
&ELECTRONS
    conv_thr    = 1.0d-8
    diagonalization = 'david'
/


&IONS
ion_dynamics = 'bfgs'
/

&CELL
cell_dynamics = 'bfgs'
cell_dofree = 'all'
/
CELL_PARAMETERS angstrom
        7.3236460686         0.0000000000         0.0000000000
        0.0000000000         7.3236460686         0.0000000000
        0.0000000000         0.0000000000         7.7495899200

ATOMIC_SPECIES
W 183.84 W_ONCV_LDA-4.0.upf
O 15.9994 O_ONCV_LDA-3.0.upf

ATOMIC_POSITIONS crystal
W 0.237430000         0.236770003         0.218119991 0 0 0
W 0.762570000         0.763229964         0.218119991 0 0 0
W 0.236770003         0.762570000         0.781880024 0 0 0
W 0.763229964         0.237430000         0.781880024 0 0 0
W 0.262570000         0.736770003         0.281880024 0 0 0
W 0.737429967         0.263229997         0.281880024 0 0 0
W 0.263229997         0.262570000         0.718119976 0 0 0
W 0.736770003         0.737429967         0.718119976 0 0 0
O 0.223199997         0.223339999         0.491670026 0 0 0
O 0.776800020         0.776659952         0.491670026 0 0 0
O 0.223339999         0.776800020         0.508329974 0 0 0
O 0.776659952         0.223199997         0.508329974 0 0 0
O 0.276800020         0.723340015         0.008329987 0 0 0
O 0.723199948         0.276659985         0.008329987 0 0 0
O 0.276659985         0.276800020         0.991670026 0 0 0
O 0.723340015         0.723199948         0.991670026 0 0 0
O 0.199410008         0.496340017         0.272650016 0 0 0
O 0.800589976         0.503659951         0.272650016 0 0 0
O 0.496340017         0.800589976         0.727350015 0 0 0
O 0.503659951         0.199410008         0.727350015 0 0 0
O 0.300589976         0.996340017         0.227350000 0 0 0
O 0.699409992         0.003659993         0.227350000 0 0 0
O 0.003659993         0.300589976         0.772649985 0 0 0
O 0.996340017         0.699409992         0.772649985 0 0 0
O 0.994419968         0.199410008         0.217989993 0 0 0
O 0.005580008         0.800589976         0.217989993 0 0 0
O 0.199410008         0.005580008         0.782010038 0 0 0
O 0.800589976         0.994419968         0.782010038 0 0 0
O 0.505580000         0.699409992         0.282010007 0 0 0
O 0.494420066         0.300589976         0.282010007 0 0 0
O 0.300589976         0.505580000         0.717989962 0 0 0
O 0.699409992         0.494420066         0.717989962 0 0 0

K_POINTS automatic
6 6 6 0 0 0
