&CONTROL
    calculation   = 'scf'
    restart_mode  = 'from_scratch'
    prefix        = 'Landau_10'
    pseudo_dir    = '/cluster/scratch/mnoe/QE/pps'
    outdir        = './'
/
&SYSTEM
    ibrav       = 0
    nat         = 32
    ntyp        = 2
    ecutwfc     = 120
    occupations = 'smearing'
    degauss     = 7.35d-4
    tot_charge  = -0.2
/
&ELECTRONS
    conv_thr    = 1.0d-8
    diagonalization = 'david'
/

CELL_PARAMETERS angstrom
   7.441923083  -0.000000083   0.000000016
  -0.000000088   7.660493155  -0.000000669
   0.000000016  -0.000000618   7.441923046

ATOMIC_SPECIES
W 183.84 W_ONCV_LDA-4.0.upf
O 15.9994 O_ONCV_LDA-3.0.upf

ATOMIC_POSITIONS crystal
W 0.25	0.2739003587681742	0.0	
W 0.7499999576892755	0.7260996412318258	0.0	
W 0.25	0.22609965887624597	0.5	
W 0.7499999576892755	0.773900409745203	0.5	
W 0.7499999576892755	0.2739003587681742	0.5	
W 0.25	0.7260996412318258	0.5	
W 0.7499999576892755	0.22609965887624597	0.0	
W 0.25	0.773900409745203	0.0	
O 0.25	0.006151556856545186	0.0	
O 0.7499999576892755	0.9938484106106289	0.0	
O 0.25	0.49384846158765766	0.5	
O 0.7499999576892755	0.5061515893893711	0.5	
O 0.7499999576892755	0.006151556856545186	0.5	
O 0.25	0.9938484106106289	0.5	
O 0.7499999576892755	0.49384846158765766	0.0	
O 0.25	0.5061515893893711	0.0	
O 0.5	0.25	0.4690029002650604	
O 0.5	0.7500000246663043	0.5309971540008088	
O 0.0	0.25	0.9690029332650604	
O 0.0	0.7500000246663043	0.030997041691171616	
O 0.5	0.25	0.030997041691171616	
O 0.5	0.7500000246663043	0.9690029332650604	
O 0.0	0.25	0.5309971540008088	
O 0.0	0.7500000246663043	0.4690029002650604	
O 0.7190028883099157	0.25	0.7499999576892755	
O 0.28099705742421494	0.7500000246663043	0.25	
O 0.7809971963115333	0.25	0.25	
O 0.2190029162650604	0.7500000246663043	0.7499999576892755	
O 0.28099705742421494	0.25	0.7499999576892755	
O 0.7190028883099157	0.7500000246663043	0.25	
O 0.2190029162650604	0.25	0.25	
O 0.7809971963115333	0.7500000246663043	0.7499999576892755	

K_POINTS automatic
6 6 6 0 0 0
