&CONTROL
    calculation   = 'scf'
    restart_mode  = 'from_scratch'
    prefix        = 'Landau_20'
    pseudo_dir    = '/cluster/scratch/mnoe/QE/pps'
    outdir        = './'
/
&SYSTEM
    ibrav       = 0
    nat         = 32
    ntyp        = 2
    ecutwfc     = 120
    occupations = 'smearing'
    degauss     = 7.35d-4
    tot_charge  = -1.0
/
&ELECTRONS
    conv_thr    = 1.0d-8
    diagonalization = 'david'
/

CELL_PARAMETERS angstrom
   7.343343409   0.000000000   0.000000000
   0.000000000   7.579507287   0.000000000
   0.000000000   0.000000000   7.402243941

ATOMIC_SPECIES
W 183.84 W_ONCV_LDA-4.0.upf
O 15.9994 O_ONCV_LDA-3.0.upf

ATOMIC_POSITIONS crystal
W 0.2315	0.27987905287963316	0.017470001	
W 0.7684999724699522	0.7201209471203668	0.982530022	
W 0.2685	0.2201209627784948	0.517470011	
W 0.7315000064699522	0.779879042281601	0.482529989	
W 0.7684999724699522	0.27987905287963316	0.482529989	
W 0.2315	0.7201209471203668	0.517470011	
W 0.7315000064699522	0.2201209627784948	0.982530022	
W 0.2685	0.779879042281601	0.017470001	
O 0.215869987	0.007780330439285206	0.00543	
O 0.7841299534699522	0.9922196787400269	0.994569993	
O 0.284129997	0.49221966814199475	0.505429974	
O 0.7158700254699522	0.5077803212599731	0.494569993	
O 0.7841299534699522	0.007780330439285206	0.494569993	
O 0.215869987	0.9922196787400269	0.505429974	
O 0.7158700254699522	0.49221966814199475	0.994569993	
O 0.284129997	0.5077803212599731	0.00543	
O 0.505060008	0.214990001	0.4543838168107285	
O 0.494939992	0.78501000887192	0.5456161719074952	
O 0.994939959	0.285009969	0.9543838498107284	
O 0.005059958	0.71499004087192	0.04561618076168772	
O 0.494939992	0.214990001	0.04561618076168772	
O 0.505060008	0.78501000887192	0.9543838498107284	
O 0.005059958	0.285009969	0.5456161719074952	
O 0.994939959	0.71499004087192	0.4543838168107285	
O 0.7043838386225526	0.242360002	0.7423300034699521	
O 0.29561617265922363	0.75764003887192	0.257669986	
O 0.7956161824375431	0.257639998	0.242330079	
O 0.2043838328107285	0.7423600118719199	0.7576699754699522	
O 0.29561617265922363	0.242360002	0.7576699754699522	
O 0.7043838386225526	0.75764003887192	0.242330079	
O 0.2043838328107285	0.257639998	0.257669986	
O 0.7956161824375431	0.7423600118719199	0.7423300034699521	

K_POINTS automatic
6 6 6 0 0 0
