&CONTROL
    calculation   = 'scf'
    restart_mode  = 'from_scratch'
    prefix        = 'chempot_7'
    pseudo_dir    = '/cluster/scratch/mnoe/QE/pps'
    outdir        = './'
/
&SYSTEM
    ibrav       = 0
    nat         = 16 
    ntyp        = 2
    ecutwfc     = 120
    occupations = 'smearing'
    degauss     = 7.35d-4
    tot_charge  = -.35
/
&ELECTRONS
    conv_thr    = 1.0d-8
    diagonalization = 'david'
/
CELL_PARAMETERS angstrom
   5.227261880   0.000000000   0.000000000
   0.000000000   5.227261880   0.000000000
   0.000000000   0.000000000   7.607403488


ATOMIC_SPECIES
W 183.84 W_ONCV_LDA-4.0.upf
O 15.9994 O_ONCV_LDA-3.0.upf

ATOMIC_POSITIONS crystal
W 0.24999999999989808	0.24999999999981848	0.20454013921897643	
W 0.7500000229999106	0.7500000229999663	0.7954598757771565	
W 0.7500000230000298	0.7500000230000773	0.2954598757810213	
W 0.24999999999987946	0.25000000000005734	0.7045401242228437	
O 0.2499999999995672	0.24999999999986292	0.46597134882927516	
O 0.750000022999988	0.750000023000516	0.5340286511766698	
O 0.750000022999795	0.7500000230000302	0.034028664170733025	
O 0.24999999999962969	0.25000000000008604	0.9659713488233168	
O 0.5196265056463465	0.48037344835353807	0.250000000000067	
O 0.48037349439634963	0.5196265516036986	0.7499999999999978	
O -0.01962652264591961	1.0196265516456988	0.25000000000000655	
O 1.0196264596042344	-0.01962648860407415	0.7500000000003266	
O 1.0196265516459566	0.5196265056458972	0.2500000000002512	
O -0.019626488603682046	0.48037349439631155	0.7499999999999605	
O 0.48037344835385226	-0.019626522646066936	0.24999999999981043	
O 0.5196265516042619	1.019626459604157	0.7499999999995922	

K_POINTS automatic
9 9 6 0 0 0
