&CONTROL
    calculation   = 'scf'
    restart_mode  = 'from_scratch'
    prefix        = 'Landau_31'
    pseudo_dir    = '/cluster/scratch/mnoe/QE/pps'
    outdir        = './'
/
&SYSTEM
    ibrav       = 0
    nat         = 16
    ntyp        = 2
    ecutwfc     = 120
    occupations = 'smearing'
    degauss     = 7.35d-4
    tot_charge  = -0.5
/
&ELECTRONS
    conv_thr    = 1.0d-8
    diagonalization = 'david'
/

CELL_PARAMETERS angstrom
   5.249495611   0.000000000   0.000000000
   0.000000000   5.249495611   0.000000000
   0.000000000   0.000000000   7.630191629

ATOMIC_SPECIES
W 183.84 W_ONCV_LDA-4.0.upf
O 15.9994 O_ONCV_LDA-3.0.upf

ATOMIC_POSITIONS crystal
W      0.249999999999921	0.24999999999985933	0.20759560586970674	
W      0.7500000229999307	0.7500000229999739	0.7924044091272963	
W      0.750000023000023	0.7500000230000599	0.2924044091302915	
W      0.24999999999990657	0.25000000000004446	0.707595590872704	
O     0.2499999999996646	0.24999999999989375	0.47175355119268825	
O     0.7500000229999907	0.7500000230003999	0.5282464488119191	
O     0.7500000229998411	0.7500000230000234	0.0282464618073181	
O     0.249999999999713	0.2500000000000667	0.9717535511880705	
O      0.5038277864759185	0.496172167523992	0.25000000000005196	
O      0.496172213557171	0.5038278324428664	0.7499999999999982	
O      -0.003827803475587699	1.0038278324754166	0.25000000000000505	
O      1.0038277404432816	-0.003827769443157464	0.7500000000002531	
O      1.0038278324756165	0.5038277864755704	0.2500000000001947	
O      -0.003827769442853582	0.4961722135571415	0.7499999999999694	
O      0.49617216752423554	-0.0038278034757018714	0.24999999999985306	
O      0.503827832443303	1.0038277404432216	0.7499999999996839	

K_POINTS automatic
6 6 6 0 0 0
