&CONTROL
    calculation   = 'scf'
    restart_mode  = 'from_scratch'
    prefix        = 'Landau_32'
    pseudo_dir    = '/cluster/scratch/mnoe/QE/pps'
    outdir        = './'
/
&SYSTEM
    ibrav       = 0
    nat         = 16
    ntyp        = 2
    ecutwfc     = 120
    occupations = 'smearing'
    degauss     = 7.35d-4
    tot_charge  = -1.5
/
&ELECTRONS
    conv_thr    = 1.0d-8
    diagonalization = 'david'
/

CELL_PARAMETERS angstrom
5.35265158027586225060 0 0
0 5.35265158027586225060 0
0 0 7.60836600373275868352

ATOMIC_SPECIES
W 183.84 W_ONCV_LDA-4.0.upf
O 15.9994 O_ONCV_LDA-3.0.upf

ATOMIC_POSITIONS crystal
W      0.24999999999991845	0.24999999999985478	0.20725610957518115	
W      0.7500000229999285	0.750000022999973	0.7927439054217252	
W      0.7500000230000238	0.7500000230000619	0.29274390542481704	
W      0.24999999999990358	0.2500000000000459	0.707256094578275	
O     0.24999999999965378	0.24999999999989034	0.4711110842634201	
O     0.7500000229999905	0.7500000230004128	0.5288889157413358	
O     0.750000022999836	0.7500000230000242	0.028888928736586425	
O     0.24999999999970376	0.25000000000006883	0.9711110842586534	
O      0.5055831997170772	0.49441675428283044	0.2500000000000536	
O      0.49441680031707974	0.5055832456829589	0.7499999999999982	
O      -0.005583216716735694	1.005583245716559	0.2500000000000052	
O      1.0055831536833875	-0.005583182683259316	0.7500000000002613	
O      1.0055832457167653	0.5055831997167177	0.25000000000020095	
O      -0.005583182682945637	0.49441680031704927	0.7499999999999684	
O      0.4944167542830818	-0.005583216716853551	0.24999999999984834	
O      0.5055832456834095	1.0055831536833255	0.7499999999996737	

K_POINTS automatic
6 6 6 0 0 0
