
&CONTROL
    calculation   = 'vc-relax'
    restart_mode  = 'from_scratch'
    prefix        = 'Landau_2'
    pseudo_dir    = '/cluster/scratch/mnoe/QE/pps'
    outdir        = './'
    forc_conv_thr = 1.0d-7
    etot_conv_thr = 1.0d-7

/
&SYSTEM
    ibrav       = 0
    nat         = 32
    ntyp        = 2
    ecutwfc     = 120
    occupations = 'smearing'
    degauss     = 7.35d-4
    tot_charge  = -0.0
/
&ELECTRONS
    conv_thr    = 1.0d-8
    diagonalization = 'david'
/


&IONS
ion_dynamics = 'bfgs'
/

&CELL
cell_dynamics = 'bfgs'
cell_dofree = 'all'
/
CELL_PARAMETERS angstrom
        7.3236460686         0.0000000000         0.0000000000
        0.0000000000         7.7495899200         0.0000000000
        0.0000000000         0.0000000000         7.3236460686

ATOMIC_SPECIES
W 183.84 W_ONCV_LDA-4.0.upf
O 15.9994 O_ONCV_LDA-3.0.upf

ATOMIC_POSITIONS crystal
W 0.250869983	0.28166537433280053	-0.999090002	 0 0 0
W 0.7490900008589964	0.7183346256671994	-0.999129984	 0 0 0
W 0.24913	0.2183346407385122	-0.499090002	 0 0 0
W 0.7509099638589963	0.7816653765434951	-0.49912999999999996	 0 0 0
W 0.7491299828589963	0.28166537433280053	-0.500909982	 0 0 0
W 0.250909982	0.7183346256671994	-0.5008699830000001	 0 0 0
W 0.7508699818589963	0.2183346407385122	-1.000909965	 0 0 0
W 0.249090002	0.7816653765434951	-1.0008699829999999	 0 0 0
O 0.251850015	0.00827151006491006	-0.998159997	 0 0 0
O 0.7481599958589964	0.9917285014375227	-0.998149969	 0 0 0
O 0.248150001	0.4917285036482172	-0.498159997	 0 0 0
O 0.7518399698589964	0.5082714985624773	-0.498150001	 0 0 0
O 0.7481499678589963	0.00827151006491006	-0.501840003	 0 0 0
O 0.251840003	0.9917285014375227	-0.501850015	 0 0 0
O 0.7518499978589964	0.4917285036482172	-1.0018399709999999	 0 0 0
O 0.248159997	0.5082714985624773	-1.001849999	 0 0 0
O 0.499609947	0.252210015	-0.5500651153298046	 0 0 0
O 0.500249985	0.7484400230696909	-0.44993486631687535	 0 0 0
O 0.000389993	0.24779	-1.0500651153298046	 0 0 0
O 0.999750015	0.7515599790696909	-0.9499348546669517	 0 0 0
O 0.500389988	0.252210015	-0.9499348546669517	 0 0 0
O 0.499749982	0.7484400230696909	-1.0500651153298046	 0 0 0
O 0.999610012	0.24779	-0.44993486631687535	 0 0 0
O 0.000250012	0.7515599790696909	-0.5500651153298046	 0 0 0
O 0.6999348514578789	0.248439991	-0.25025001314100365	 0 0 0
O 0.300065114188801	0.7477899550696909	-0.750389988	 0 0 0
O 0.8000651188241283	0.251560009	-0.750249985	 0 0 0
O 0.19993486867019536	0.7522100470696909	-0.2503899941410036	 0 0 0
O 0.300065114188801	0.248439991	-1.2497500161410038	 0 0 0
O 0.6999348514578789	0.7477899550696909	-0.7496099469999999	 0 0 0
O 0.19993486867019536	0.251560009	-0.749749982	 0 0 0
O 0.8000651188241283	0.7522100470696909	-1.2496100131410037	 0 0 0

K_POINTS automatic
6 6 6 0 0 0
