
&CONTROL
    calculation   = 'vc-relax'
    restart_mode  = 'from_scratch'
    prefix        = 'Landau_32'
    pseudo_dir    = '/cluster/scratch/mnoe/QE/pps'
    outdir        = './'
    forc_conv_thr = 1.0d-7
    etot_conv_thr = 1.0d-7

/
&SYSTEM
    ibrav       = 0
    nat         = 32
    ntyp        = 2
    ecutwfc     = 120
    occupations = 'smearing'
    degauss     = 7.35d-4
    tot_charge  = -0.0
/
&ELECTRONS
    conv_thr    = 1.0d-8
    diagonalization = 'david'
/


&IONS
ion_dynamics = 'bfgs'
/

&CELL
cell_dynamics = 'bfgs'
cell_dofree = 'all'
/
CELL_PARAMETERS angstrom
        7.3236460686         0.0000000000         0.0000000000
        0.0000000000         7.3236460686         0.0000000000
        0.0000000000         0.0000000000         7.7495899200

ATOMIC_SPECIES
W 183.84 W_ONCV_LDA-4.0.upf
O 15.9994 O_ONCV_LDA-3.0.upf

ATOMIC_POSITIONS crystal
W 0.236120002         0.235400000         0.218119991 0 0 0
W 0.763880030         0.764599967         0.218119991 0 0 0
W 0.235400000         0.763880030         0.781880024 0 0 0
W 0.764599967         0.236120002         0.781880024 0 0 0
W 0.263880014         0.735400000         0.281880024 0 0 0
W 0.736120002         0.264599983         0.281880024 0 0 0
W 0.264599983         0.263880014         0.718119976 0 0 0
W 0.735400000         0.736120002         0.718119976 0 0 0
O 0.220430004         0.220580002         0.491670026 0 0 0
O 0.779569980         0.779420014         0.491670026 0 0 0
O 0.220580002         0.779569980         0.508329974 0 0 0
O 0.779420014         0.220430004         0.508329974 0 0 0
O 0.279569980         0.720579953         0.008329987 0 0 0
O 0.720429988         0.279420014         0.008329987 0 0 0
O 0.279420014         0.279569980         0.991670026 0 0 0
O 0.720579953         0.720429988         0.991670026 0 0 0
O 0.199410008         0.495959992         0.275000012 0 0 0
O 0.800589976         0.504040008         0.275000012 0 0 0
O 0.495959992         0.800589976         0.725000049 0 0 0
O 0.504040008         0.199410008         0.725000049 0 0 0
O 0.300589976         0.995959992         0.224999988 0 0 0
O 0.699409992         0.004040003         0.224999988 0 0 0
O 0.004040003         0.300589976         0.774999951 0 0 0
O 0.995959992         0.699409992         0.774999951 0 0 0
O 0.993839968         0.199410008         0.214680001 0 0 0
O 0.006160021         0.800589976         0.214680001 0 0 0
O 0.199410008         0.006160021         0.785319999 0 0 0
O 0.800589976         0.993839968         0.785319999 0 0 0
O 0.506160032         0.699409992         0.285319969 0 0 0
O 0.493839968         0.300589976         0.285319969 0 0 0
O 0.300589976         0.506160032         0.714680001 0 0 0
O 0.699409992         0.493839968         0.714680001 0 0 0

K_POINTS automatic
6 6 6 0 0 0
