
&CONTROL
    calculation   = 'vc-relax'
    restart_mode  = 'from_scratch'
    prefix        = 'Landau_32'
    pseudo_dir    = '/cluster/scratch/mnoe/QE/pps'
    outdir        = './'
    forc_conv_thr = 1.0d-7
    etot_conv_thr = 1.0d-7

/
&SYSTEM
    ibrav       = 0
    nat         = 32
    ntyp        = 2
    ecutwfc     = 120
    occupations = 'smearing'
    degauss     = 7.35d-4
    tot_charge  = -0.0
/
&ELECTRONS
    conv_thr    = 1.0d-8
    diagonalization = 'david'
/


&IONS
ion_dynamics = 'bfgs'
/

&CELL
cell_dynamics = 'bfgs'
cell_dofree = 'all'
/
CELL_PARAMETERS angstrom
        7.3236460686         0.0000000000         0.0000000000
        0.0000000000         7.7495899200         0.0000000000
        0.0000000000         0.0000000000         7.3236460686

ATOMIC_SPECIES
W 183.84 W_ONCV_LDA-4.0.upf
O 15.9994 O_ONCV_LDA-3.0.upf

ATOMIC_POSITIONS crystal
0.2787800130000001	0.281860003	0.250819999	 0 0 0
-0.25082002000000003	0.718139997	-0.7212200200000001	 0 0 0
0.22122000399999997	0.218140012	0.750820036	 0 0 0
0.750819999	0.781859972	0.7787800290000001	 0 0 0
0.721219999	0.281860003	0.749180013	 0 0 0
0.25082002000000003	0.718139997	0.72122002	 0 0 0
-0.22122001999999996	0.218140012	-0.7508200200000001	 0 0 0
0.24917999700000004	0.781859972	0.22121999899999994	 0 0 0
0.281649999	0.00832	0.272949987	 0 0 0
-0.27294999100000006	0.991680023	-0.7183500170000001	 0 0 0
0.218350017	0.491679992	0.7729499910000001	 0 0 0
0.772949987	0.508319977	0.781649983	 0 0 0
0.718350013	0.00832	0.727049993	 0 0 0
0.27295000700000005	0.991680023	0.718350001	 0 0 0
-0.218350017	0.491679992	-0.7729499910000002	 0 0 0
0.22705000899999994	0.508319977	0.21835001299999995	 0 0 0
0.489809988	0.284129994	0.6995400039999999	 0 0 0
0.4979100379999999	0.728109904	0.800459963	 0 0 0
-0.989809988	0.21586999	1.199540037	 0 0 0
0.0020899710000000134	0.7718899439999999	0.300460012	 0 0 0
0.5101900119999999	0.284129994	0.300460012	 0 0 0
0.502089962	0.728109904	1.199540037	 0 0 0
-0.010190003000000069	0.21586999	0.800459963	 0 0 0
-1.0020899620000001	0.7718899439999999	0.6995400039999999	 0 0 0
0.6995400369999999	0.22810998	2.0020899620000003	 0 0 0
0.300459996	0.7158699449999999	0.4898099879999999	 0 0 0
0.800459963	0.271890004	0.5020899620000001	 0 0 0
0.19954001999999996	0.784129903	1.989809988	 0 0 0
0.300459996	0.22810998	0.9979100289999999	 0 0 0
0.699540037	0.7158699449999999	0.510190012	 0 0 0
0.19954002	0.271890004	0.4979100379999999	 0 0 0
0.800459963	0.784129903	1.0101900030000002	 0 0 0

K_POINTS automatic
6 6 6 0 0 0
