
&CONTROL
    calculation   = 'vc-relax'
    restart_mode  = 'from_scratch'
    prefix        = 'Landau_26'
    pseudo_dir    = '/cluster/scratch/mnoe/QE/pps'
    outdir        = './'
    forc_conv_thr = 1.0d-7
    etot_conv_thr = 1.0d-7

/
&SYSTEM
    ibrav       = 0
    nat         = 32
    ntyp        = 2
    ecutwfc     = 120
    occupations = 'smearing'
    degauss     = 7.35d-4
    tot_charge  = -0.0
/
&ELECTRONS
    conv_thr    = 1.0d-8
    diagonalization = 'david'
/


&IONS
ion_dynamics = 'bfgs'
/

&CELL
cell_dynamics = 'bfgs'
cell_dofree = 'all'
/
CELL_PARAMETERS angstrom
        7.3236460686         0.0000000000         0.0000000000
        0.0000000000         7.3236460686         0.0000000000
        0.0000000000         0.0000000000         7.7495899200

ATOMIC_SPECIES
W 183.84 W_ONCV_LDA-4.0.upf
O 15.9994 O_ONCV_LDA-3.0.upf

ATOMIC_POSITIONS crystal
W 0.238730002         0.238140006         0.218119991 0 0 0
W 0.761269998         0.761860026         0.218119991 0 0 0
W 0.238140006         0.761269998         0.781880024 0 0 0
W 0.761860026         0.238730002         0.781880024 0 0 0
W 0.261269982         0.738140006         0.281880024 0 0 0
W 0.738730034         0.261860010         0.281880024 0 0 0
W 0.261860010         0.261269982         0.718119976 0 0 0
W 0.738140006         0.738730034         0.718119976 0 0 0
O 0.225980001         0.226090000         0.491670026 0 0 0
O 0.774020032         0.773909984         0.491670026 0 0 0
O 0.226090000         0.774020032         0.508329974 0 0 0
O 0.773909984         0.225980001         0.508329974 0 0 0
O 0.274020032         0.726089984         0.008329987 0 0 0
O 0.725980001         0.273909984         0.008329987 0 0 0
O 0.273909984         0.274020032         0.991670026 0 0 0
O 0.726089984         0.725980001         0.991670026 0 0 0
O 0.199410008         0.496719976         0.270310018 0 0 0
O 0.800589976         0.503280056         0.270310018 0 0 0
O 0.496719976         0.800589976         0.729689951 0 0 0
O 0.503280056         0.199410008         0.729689951 0 0 0
O 0.300589976         0.996719976         0.229689982 0 0 0
O 0.699409992         0.003280014         0.229689982 0 0 0
O 0.003280014         0.300589976         0.770310049 0 0 0
O 0.996719976         0.699409992         0.770310049 0 0 0
O 0.994990005         0.199410008         0.221300001 0 0 0
O 0.005010009         0.800589976         0.221300001 0 0 0
O 0.199410008         0.005010009         0.778700015 0 0 0
O 0.800589976         0.994990005         0.778700015 0 0 0
O 0.505009995         0.699409992         0.278699984 0 0 0
O 0.494990005         0.300589976         0.278699984 0 0 0
O 0.300589976         0.505009995         0.721299985 0 0 0
O 0.699409992         0.494990005         0.721299985 0 0 0

K_POINTS automatic
6 6 6 0 0 0
