
&CONTROL
    calculation   = 'vc-relax'
    restart_mode  = 'from_scratch'
    prefix        = 'Landau_31'
    pseudo_dir    = '/cluster/scratch/mnoe/QE/pps'
    outdir        = './'
    forc_conv_thr = 1.0d-7
    etot_conv_thr = 1.0d-7

/
&SYSTEM
    ibrav       = 0
    nat         = 32
    ntyp        = 2
    ecutwfc     = 120
    occupations = 'smearing'
    degauss     = 7.35d-4
    tot_charge  = -0.0
/
&ELECTRONS
    conv_thr    = 1.0d-8
    diagonalization = 'david'
/


&IONS
ion_dynamics = 'bfgs'
/

&CELL
cell_dynamics = 'bfgs'
cell_dofree = 'all'
/
CELL_PARAMETERS angstrom
        7.3236460686         0.0000000000         0.0000000000
        0.0000000000         7.7495899200         0.0000000000
        0.0000000000         0.0000000000         7.3236460686

ATOMIC_SPECIES
W 183.84 W_ONCV_LDA-4.0.upf
O 15.9994 O_ONCV_LDA-3.0.upf

ATOMIC_POSITIONS crystal
        0.235660000         0.281860003         0.013540000 0 0 0
        0.764339984         0.718139997         0.986459981 0 0 0
        0.264339984         0.218140012         0.513540019 0 0 0
        0.735660016         0.781859972         0.486460013 0 0 0
        0.764339984         0.281860003         0.486460013 0 0 0
        0.235660000         0.718139997         0.513540019 0 0 0
        0.735660016         0.218140012         0.986459981 0 0 0
        0.264339984         0.781859972         0.013540000 0 0 0
        0.223550000         0.008320000         0.004210000 0 0 0
        0.776449951         0.991680023         0.995789995 0 0 0
        0.276449983         0.491679992         0.504210005 0 0 0
        0.723550049         0.508319977         0.495789995 0 0 0
        0.776449951         0.008320000         0.495789995 0 0 0
        0.223550000         0.991680023         0.504210005 0 0 0
        0.723550049         0.491679992         0.995789995 0 0 0
        0.276449983         0.508319977         0.004210000 0 0 0
        0.503920029         0.222870006         0.449540004 0 0 0
        0.496079971         0.777129979         0.550459963 0 0 0
        0.996080003         0.277130009         0.949540037 0 0 0
        0.003920078         0.722869991         0.050460012 0 0 0
        0.496079971         0.222870006         0.050460012 0 0 0
        0.503920029         0.777129979         0.949540037 0 0 0
        0.003920078         0.277130009         0.550459963 0 0 0
        0.996080003         0.722869991         0.449540004 0 0 0
        0.699540037         0.244080001         0.744059972 0 0 0
        0.300459996         0.755920015         0.255940012 0 0 0
        0.800459963         0.255919999         0.244060037 0 0 0
        0.199540020         0.744080016         0.755940028 0 0 0
        0.300459996         0.244080001         0.755940028 0 0 0
        0.699540037         0.755920015         0.244060037 0 0 0
        0.199540020         0.255919999         0.255940012 0 0 0
        0.800459963         0.744080016         0.744059972 0 0 0

K_POINTS automatic
6 6 6 0 0 0
