
&CONTROL
    calculation   = 'vc-relax'
    restart_mode  = 'from_scratch'
    prefix        = 'Landau_5'
    pseudo_dir    = '/cluster/scratch/mnoe/QE/pps'
    outdir        = './'
    forc_conv_thr = 1.0d-7
    etot_conv_thr = 1.0d-7

/
&SYSTEM
    ibrav       = 0
    nat         = 32
    ntyp        = 2
    ecutwfc     = 120
    occupations = 'smearing'
    degauss     = 7.35d-4
    tot_charge  = -0.0
/
&ELECTRONS
    conv_thr    = 1.0d-8
    diagonalization = 'david'
/


&IONS
ion_dynamics = 'bfgs'
/

&CELL
cell_dynamics = 'bfgs'
cell_dofree = 'all'
/
CELL_PARAMETERS angstrom
        7.3236460686         0.0000000000         0.0000000000
        0.0000000000         7.7495899200         0.0000000000
        0.0000000000         0.0000000000         7.3236460686

ATOMIC_SPECIES
W 183.84 W_ONCV_LDA-4.0.upf
O 15.9994 O_ONCV_LDA-3.0.upf

ATOMIC_POSITIONS crystal
W       0.247690009	0.2835580012	0.00218	 0 0 0
W       0.752309975	0.7164419987999999	0.997819989	 0 0 0
W       0.252309975	0.21644201155	0.502179979	 0 0 0
W       0.747690025	0.7835579702000001	0.497819989	 0 0 0
W      0.752309975	0.2835580012	0.497819989	 0 0 0
W      0.247690009	0.7164419987999999	0.502179979	 0 0 0
W      0.747690025	0.21644201155	0.997819989	 0 0 0
W      0.252309975	0.7835579702000001	0.00218	 0 0 0
O       0.245729994	0.01153300015	0.00068	 0 0 0
O       0.754270038	0.9884670269	0.999319971	 0 0 0
O       0.254270022	0.48846699125000004	0.500680029	 0 0 0
O       0.745729962	0.5115329824	0.499320004	 0 0 0
O       0.754270038	0.01153300015	0.499320004	 0 0 0
O       0.245729994	0.9884670269	0.500680029	 0 0 0
O       0.745729962	0.48846699125000004	0.999319971	 0 0 0
O       0.254270022	0.5115329824	0.00068	 0 0 0
O    0.500630023	0.245620002	0.45831651	 0 0 0
O    0.499369977	0.754379982	0.54168346675	 0 0 0
O    0.999369977	0.254379982	0.9583165358	 0 0 0
O    0.000630021	0.745619987	0.0416835126	 0 0 0
O   0.499369977	0.245620002	0.0416835126	 0 0 0
O   0.500630023	0.754379982	0.9583165358	 0 0 0
O   0.000630021	0.254379982	0.54168346675	 0 0 0
O   0.999369977	0.745619987	0.45831651	 0 0 0
O   0.70831654795	0.249039987	0.74903999	 0 0 0
O   0.29168349720000003	0.750960013	0.250959994	 0 0 0
O   0.7916834617999999	0.250959997	0.249040006	 0 0 0
O   0.20831652615000001	0.749040018	0.75096001	 0 0 0
O   0.29168349720000003	0.249039987	0.75096001	 0 0 0
O   0.70831654795	0.750960013	0.249040006	 0 0 0
O   0.20831652615000001	0.250959997	0.250959994	 0 0 0
O   0.7916834617999999	0.749040018	0.74903999	 0 0 0

K_POINTS automatic
6 6 6 0 0 0
