&CONTROL
    calculation   = 'scf'
    restart_mode  = 'from_scratch'
    prefix        = 'Landau_9'
    pseudo_dir    = '/cluster/scratch/mnoe/QE/pps'
    outdir        = './'
/
&SYSTEM
    ibrav       = 0
    nat         = 32
    ntyp        = 2
    ecutwfc     = 120
    occupations = 'smearing'
    degauss     = 7.35d-4
    tot_charge  = -0.2
/
&ELECTRONS
    conv_thr    = 1.0d-8
    diagonalization = 'david'
/

CELL_PARAMETERS angstrom
   7.429294033   0.000000000   0.000000000
   0.000000000   7.662217749   0.000000000
   0.000000000   0.000000000   7.431336095

ATOMIC_SPECIES
W 183.84 W_ONCV_LDA-4.0.upf
O 15.9994 O_ONCV_LDA-3.0.upf

ATOMIC_POSITIONS crystal
W 0.24453198707447074	0.2748849762553339	0.0025410500748982356	
W 0.7528497418165448	0.7251150237446661	-0.005313639617190741	
W 0.2554680129255293	0.22511504106196834	0.5025410510490544	
W 0.7471501857532867	0.7748850170917064	0.4946863516903409	
W 0.7554679712776525	0.2748849762553339	0.4974589489509456	
W 0.24715021975778603	0.7251150237446661	0.5053136483096591	
W 0.744531956292179	0.22511504106196834	-0.0025410449043781706	
W 0.25284978024221394	0.7748850170917064	0.0053136447877108065	
O 0.24192049698703644	0.006419795860296165	-0.0013368385889213404	
O 0.7572656591080614	-0.0064198215236452895	-0.0037782248599008876	
O 0.258079496943223	0.4935802193127273	0.4986631530932859	
O 0.7427342662137183	0.5064198215236453	0.4962217726672421	
O 0.7580794543961249	0.006419795860296165	0.5013368406871028	
O 0.2427342903267883	-0.0064198215236452895	0.5037782211131466	
O 0.7419204709256548	0.4935802193127273	0.0013368370152848042	
O 0.2572657036034712	0.5064198215236453	0.0037782232862643515	
O 0.5017122670849622	0.24155706572943994	0.4665953167782595	
O 0.49943723465409057	0.7572979510923711	0.5334047266927175	
O -0.0017122696327555342	0.2584429275264034	0.9665953497782596	
O 0.0005627589764273951	0.7427021064860512	0.03340463433727495	
O 0.4982877329150378	0.24155706572943994	0.03340463433727495	
O 0.5005627653459095	0.7572979510923711	0.9665953497782596	
O 0.0017122558447011816	0.2584429275264034	0.5334047266927175	
O -0.0005627727644817476	0.7427021064860512	0.4665953167782595	
O 0.7165953103841198	0.2509059627291157	0.748654884508775	
O 0.28340464614490296	0.7543410190756051	0.25210342490451143	
O 0.783404763769555	0.24909403502283245	0.24865493372509478	
O 0.21659533277825951	0.7456590386526873	0.7521033903005311	
O 0.28340464614490296	0.2509059627291157	0.7513450475571603	
O 0.7165953103841198	0.7543410190756051	0.2478965897078279	
O 0.21659533277825951	0.24909403502283245	0.25134508088724455	
O 0.783404763769555	0.7456590386526873	0.7478965417654042	

K_POINTS automatic
6 6 6 0 0 0
