
&CONTROL
    calculation   = 'vc-relax'
    restart_mode  = 'from_scratch'
    prefix        = 'Landau_7'
    pseudo_dir    = '/cluster/scratch/mnoe/QE/pps'
    outdir        = './'
    forc_conv_thr = 1.0d-7
    etot_conv_thr = 1.0d-7

/
&SYSTEM
    ibrav       = 0
    nat         = 32
    ntyp        = 2
    ecutwfc     = 120
    occupations = 'smearing'
    degauss     = 7.35d-4
    tot_charge  = -0.0
/
&ELECTRONS
    conv_thr    = 1.0d-8
    diagonalization = 'david'
/


&IONS
ion_dynamics = 'bfgs'
/

&CELL
cell_dynamics = 'bfgs'
cell_dofree = 'all'
/
CELL_PARAMETERS angstrom
        7.3236460686         0.0000000000         0.0000000000
        0.0000000000         7.7495899200         0.0000000000
        0.0000000000         0.0000000000         7.3236460686

ATOMIC_SPECIES
W 183.84 W_ONCV_LDA-4.0.upf
O 15.9994 O_ONCV_LDA-3.0.upf

ATOMIC_POSITIONS crystal
W 0.23945327871745356	0.2797970940437201	0.0018027243294899123	 0 0 0
W 0.7524032694930239	0.7202029059562799	-0.010426268320510107	 0 0 0
W 0.26054672128254647	0.22020292164163693	0.5018027238673137	 0 0 0
W 0.7475967139361418	0.7797970842897887	0.4895737161673137	 0 0 0
W 0.7605467020361418	0.2797970940437201	0.4981972761326863	 0 0 0
W 0.24759672128254645	0.7202029059562799	0.5104262838326863	 0 0 0
W 0.7394532813930239	0.22020292164163693	-0.0018027162794899305	 0 0 0
W 0.25240327871745355	0.7797970842897887	0.01042627637051009	 0 0 0
O 0.2367889281263002	0.007758002421775246	-0.006054143004594797	 0 0 0
O 0.7606799091105875	-0.007757993814273271	-0.009855145454594783	 0 0 0
O 0.2632110585824166	0.4922419964317953	0.49394584020412197	 0 0 0
O 0.7393200673265027	0.5077579938142732	0.49014484685412196	 0 0 0
O 0.7632110421265027	0.007758002421775246	0.506054151974985	 0 0 0
O 0.2393200550824166	-0.007757993814273271	0.509855145324985	 0 0 0
O 0.7367889343105875	0.4922419964317953	0.006054140554594812	 0 0 0
O 0.2606799316263002	0.5077579938142732	0.009855143004594797	 0 0 0
O 0.5035586402109342	0.23596585221788305	0.45458422229053663	 0 0 0
O 0.5000166346109343	0.7604728555442767	0.545415767326246	 0 0 0
O -0.003558636611437043	0.26403413728211694	0.9545842552905367	 0 0 0
O -1.6636961437037183e-05	0.7395271702336553	0.04541577451946595	 0 0 0
O 0.49644135978906573	0.23596585221788305	0.04541577451946595	 0 0 0
O 0.4999833653890657	0.7604728555442767	0.9545842552905367	 0 0 0
O 0.003558622710934279	0.26403413728211694	0.545415767326246	 0 0 0
O 1.6623060934273367e-05	0.7395271702336553	0.45458422229053663	 0 0 0
O 0.7045842436394668	0.2554857457556036	0.7484948335826856	 0 0 0
O 0.29541576674375053	0.7608337662240728	0.2538638270571153	 0 0 0
O 0.7954157782919588	0.24451424725232068	0.24849485960711526	 0 0 0
O 0.20458423829053665	0.73916625967079	0.7538638237826857	 0 0 0
O 0.29541576674375053	0.2554857457556036	0.7515051638306314	 0 0 0
O 0.7045842436394668	0.7608337662240728	0.24613619569288475	 0 0 0
O 0.20458423829053665	0.24451424725232068	0.25150516314288474	 0 0 0
O 0.7954157782919588	0.73916625967079	0.7461361736306313	 0 0 0

K_POINTS automatic
6 6 6 0 0 0
