
&CONTROL
    calculation   = 'vc-relax'
    restart_mode  = 'from_scratch'
    prefix        = 'Landau_21'
    pseudo_dir    = '/cluster/scratch/mnoe/QE/pps'
    outdir        = './'
    forc_conv_thr = 1.0d-7
    etot_conv_thr = 1.0d-7

/
&SYSTEM
    ibrav       = 0
    nat         = 32
    ntyp        = 2
    ecutwfc     = 120
    occupations = 'smearing'
    degauss     = 7.35d-4
    tot_charge  = -0.0
/
&ELECTRONS
    conv_thr    = 1.0d-8
    diagonalization = 'david'
/


&IONS
ion_dynamics = 'bfgs'
/

&CELL
cell_dynamics = 'bfgs'
cell_dofree = 'all'
/
CELL_PARAMETERS angstrom
        7.3236460686         0.0000000000         0.0000000000
        0.0000000000         7.3236460686         0.0000000000
        0.0000000000         0.0000000000         7.7495899200

ATOMIC_SPECIES
W 183.84 W_ONCV_LDA-4.0.upf
O 15.9994 O_ONCV_LDA-3.0.upf

ATOMIC_POSITIONS crystal
W 0.240889991         0.240419991         0.218119991 0 0 0
W 0.759109992         0.759580009         0.218119991 0 0 0
W 0.240419991         0.759109992         0.781880024 0 0 0
W 0.759580009         0.240889991         0.781880024 0 0 0
W 0.259110009         0.740419958         0.281880024 0 0 0
W 0.740890040         0.259580009         0.281880024 0 0 0
W 0.259580009         0.259110009         0.718119976 0 0 0
W 0.740419958         0.740890040         0.718119976 0 0 0
O 0.230599992         0.230690001         0.491670026 0 0 0
O 0.769400024         0.769309967         0.491670026 0 0 0
O 0.230690001         0.769400024         0.508329974 0 0 0
O 0.769309967         0.230599992         0.508329974 0 0 0
O 0.269400008         0.730690001         0.008329987 0 0 0
O 0.730600008         0.269309999         0.008329987 0 0 0
O 0.269309999         0.269400008         0.991670026 0 0 0
O 0.730690001         0.730600008         0.991670026 0 0 0
O 0.199410008         0.497350019         0.266400013 0 0 0
O 0.800589976         0.502650014         0.266400013 0 0 0
O 0.497350019         0.800589976         0.733600018 0 0 0
O 0.502650014         0.199410008         0.733600018 0 0 0
O 0.300589976         0.997349986         0.233599987 0 0 0
O 0.699409992         0.002649993         0.233599987 0 0 0
O 0.002649993         0.300589976         0.766399982 0 0 0
O 0.997349986         0.699409992         0.766399982 0 0 0
O 0.995959992         0.199410008         0.226820008 0 0 0
O 0.004040003         0.800589976         0.226820008 0 0 0
O 0.199410008         0.004040003         0.773180007 0 0 0
O 0.800589976         0.995959992         0.773180007 0 0 0
O 0.504040008         0.699409992         0.273180007 0 0 0
O 0.495959992         0.300589976         0.273180007 0 0 0
O 0.300589976         0.504040008         0.726819993 0 0 0
O 0.699409992         0.495959992         0.726819993 0 0 0

K_POINTS automatic
6 6 6 0 0 0
