
&CONTROL
    calculation   = 'vc-relax'
    restart_mode  = 'from_scratch'
    prefix        = 'Landau_1'
    pseudo_dir    = '/cluster/scratch/mnoe/QE/pps'
    outdir        = './'
    forc_conv_thr = 1.0d-7
    etot_conv_thr = 1.0d-7

/
&SYSTEM
    ibrav       = 0
    nat         = 32
    ntyp        = 2
    ecutwfc     = 120
    occupations = 'smearing'
    degauss     = 7.35d-4
    tot_charge  = -0.0
/
&ELECTRONS
    conv_thr    = 1.0d-8
    diagonalization = 'david'
/


&IONS
ion_dynamics = 'bfgs'
/

&CELL
cell_dynamics = 'bfgs'
cell_dofree = 'all'
/
CELL_PARAMETERS angstrom
        7.3236460686         0.0000000000         0.0000000000
        0.0000000000         7.7495899200         0.0000000000
        0.0000000000         0.0000000000         7.3236460686

ATOMIC_SPECIES
W 183.84 W_ONCV_LDA-4.0.upf
O 15.9994 O_ONCV_LDA-3.0.upf

ATOMIC_POSITIONS crystal
W 0.25	0.2814620207884087	0.0	 0 0 0
W 0.7499999978844638	0.7185379792115912	0.0	 0 0 0
W 0.25	0.2185379943438123	0.5	 0 0 0
W 0.7499999978844638	0.7814619938872601	0.5	 0 0 0
W 0.7499999978844638	0.2814620207884087	0.5	 0 0 0
W 0.25	0.7185379792115912	0.5	 0 0 0
W 0.7499999978844638	0.2185379943438123	0.0	 0 0 0
W 0.25	0.7814619938872601	0.0	 0 0 0
O 0.25	0.008211577842827259	0.0	 0 0 0
O 0.7499999978844638	0.9917884423805314	0.0	 0 0 0
O 0.25	0.4917884154793829	0.5	 0 0 0
O 0.7499999978844638	0.5082115576194686	0.5	 0 0 0
O 0.7499999978844638	0.008211577842827259	0.5	 0 0 0
O 0.25	0.9917884423805314	0.5	 0 0 0
O 0.7499999978844638	0.4917884154793829	0.0	 0 0 0
O 0.25	0.5082115576194686	0.0	 0 0 0
O 0.5	0.25	0.450513148813253	 0 0 0
O 0.5	0.7499999869833152	0.5494868225500404	 0 0 0
O 0.0	0.25	0.9505131818132531	 0 0 0
O 0.0	0.7499999869833152	0.04948686348455858	 0 0 0
O 0.5	0.25	0.04948686348455858	 0 0 0
O 0.5	0.7499999869833152	0.9505131818132531	 0 0 0
O 0.0	0.25	0.5494868225500404	 0 0 0
O 0.0	0.7499999869833152	0.450513148813253	 0 0 0
O 0.7005131795654957	0.25	0.7499999978844638	 0 0 0
O 0.29948684907121076	0.7499999869833152	0.25	 0 0 0
O 0.7994868246655766	0.25	0.25	 0 0 0
O 0.20051316481325304	0.7499999869833152	0.7499999978844638	 0 0 0
O 0.29948684907121076	0.25	0.7499999978844638	 0 0 0
O 0.7005131795654957	0.7499999869833152	0.25	 0 0 0
O 0.20051316481325304	0.25	0.25	 0 0 0
O 0.7994868246655766	0.7499999869833152	0.7499999978844638	 0 0 0

K_POINTS automatic
6 6 6 0 0 0
