
&CONTROL
    calculation   = 'vc-relax'
    restart_mode  = 'from_scratch'
    prefix        = 'Landau_25'
    pseudo_dir    = '/cluster/scratch/mnoe/QE/pps'
    outdir        = './'
    forc_conv_thr = 1.0d-7
    etot_conv_thr = 1.0d-7

/
&SYSTEM
    ibrav       = 0
    nat         = 32
    ntyp        = 2
    ecutwfc     = 120
    occupations = 'smearing'
    degauss     = 7.35d-4
    tot_charge  = -0.0
/
&ELECTRONS
    conv_thr    = 1.0d-8
    diagonalization = 'david'
/


&IONS
ion_dynamics = 'bfgs'
/

&CELL
cell_dynamics = 'bfgs'
cell_dofree = 'all'
/
CELL_PARAMETERS angstrom
        7.3236460686         0.0000000000         0.0000000000
        0.0000000000         7.3236460686         0.0000000000
        0.0000000000         0.0000000000         7.7495899200

ATOMIC_SPECIES
W 183.84 W_ONCV_LDA-4.0.upf
O 15.9994 O_ONCV_LDA-3.0.upf

ATOMIC_POSITIONS crystal
W 0.239160004         0.238599995         0.218119991 0 0 0
W 0.760840029         0.761399973         0.218119991 0 0 0
W 0.238599995         0.760840029         0.781880024 0 0 0
W 0.761399973         0.239160004         0.781880024 0 0 0
W 0.260839996         0.738599995         0.281880024 0 0 0
W 0.739160004         0.261399989         0.281880024 0 0 0
W 0.261399989         0.260839996         0.718119976 0 0 0
W 0.738599995         0.739160004         0.718119976 0 0 0
O 0.226899994         0.227009994         0.491670026 0 0 0
O 0.773099989         0.772990006         0.491670026 0 0 0
O 0.227009994         0.773099989         0.508329974 0 0 0
O 0.772990006         0.226899994         0.508329974 0 0 0
O 0.273100022         0.727010026         0.008329987 0 0 0
O 0.726899978         0.272989990         0.008329987 0 0 0
O 0.272989990         0.273100022         0.991670026 0 0 0
O 0.727010026         0.726899978         0.991670026 0 0 0
O 0.199410008         0.496850016         0.269529998 0 0 0
O 0.800589976         0.503149984         0.269529998 0 0 0
O 0.496850016         0.800589976         0.730469971 0 0 0
O 0.503149984         0.199410008         0.730469971 0 0 0
O 0.300589976         0.996850016         0.230470002 0 0 0
O 0.699409992         0.003149986         0.230470002 0 0 0
O 0.003149986         0.300589976         0.769530029 0 0 0
O 0.996850016         0.699409992         0.769530029 0 0 0
O 0.995190045         0.199410008         0.222409992 0 0 0
O 0.004809976         0.800589976         0.222409992 0 0 0
O 0.199410008         0.004809976         0.777590008 0 0 0
O 0.800589976         0.995190045         0.777590008 0 0 0
O 0.504809987         0.699409992         0.277590008 0 0 0
O 0.495190013         0.300589976         0.277590008 0 0 0
O 0.300589976         0.504809987         0.722409992 0 0 0
O 0.699409992         0.495190013         0.722409992 0 0 0

K_POINTS automatic
6 6 6 0 0 0
