
&CONTROL
    calculation   = 'vc-relax'
    restart_mode  = 'from_scratch'
    prefix        = 'Landau_25'
    pseudo_dir    = '/cluster/scratch/mnoe/QE/pps'
    outdir        = './'
    forc_conv_thr = 1.0d-7
    etot_conv_thr = 1.0d-7

/
&SYSTEM
    ibrav       = 0
    nat         = 32
    ntyp        = 2
    ecutwfc     = 120
    occupations = 'smearing'
    degauss     = 7.35d-4
    tot_charge  = -0.0
/
&ELECTRONS
    conv_thr    = 1.0d-8
    diagonalization = 'david'
/


&IONS
ion_dynamics = 'bfgs'
/

&CELL
cell_dynamics = 'bfgs'
cell_dofree = 'all'
/
CELL_PARAMETERS angstrom
        7.3236460686         0.0000000000         0.0000000000
        0.0000000000         7.7495899200         0.0000000000
        0.0000000000         0.0000000000         7.3236460686

ATOMIC_SPECIES
W 183.84 W_ONCV_LDA-4.0.upf
O 15.9994 O_ONCV_LDA-3.0.upf

ATOMIC_POSITIONS crystal
0.272479981	0.281860003	0.250639966	 0 0 0
-0.2506399840000001	0.718139997	-0.7275200520000003	 0 0 0
0.22752001900000002	0.218140012	0.750640017	 0 0 0
0.750639966	0.781859972	0.772479981	 0 0 0
0.7275200340000001	0.281860003	0.749359983	 0 0 0
0.250640017	0.718139997	0.727520019	 0 0 0
-0.22752005200000014	0.218140012	-0.7506399840000002	 0 0 0
0.249359983	0.781859972	0.22752003400000004	 0 0 0
0.27473002	0.00832	0.26793000699999997	 0 0 0
-0.26792999399999995	0.991680023	-0.7252699800000001	 0 0 0
0.22526997999999998	0.491679992	0.767929994	 0 0 0
0.7679300069999999	0.508319977	0.77473002	 0 0 0
0.7252699930000001	0.00832	0.732070006	 0 0 0
0.26792999399999995	0.991680023	0.72526998	 0 0 0
-0.22526997999999998	0.491679992	-0.7679299940000001	 0 0 0
0.23207000600000005	0.508319977	0.225269993	 0 0 0
0.49204996700000014	0.27665999399999996	0.6995400039999999	 0 0 0
0.4983699890000002	0.7328998919999999	0.800459963	 0 0 0
-0.992049918	0.22334000600000004	1.199540037	 0 0 0
0.0016300710000000068	0.7670999559999999	0.300460012	 0 0 0
0.5079500330000001	0.27665999399999996	0.300460012	 0 0 0
0.501630011	0.7328998919999999	1.199540037	 0 0 0
-0.007950006000000013	0.22334000600000004	0.800459963	 0 0 0
-1.001629995	0.7670999559999999	0.6995400039999999	 0 0 0
0.6995400369999999	0.232899984	2.001630011	 0 0 0
0.300459996	0.7233399149999999	0.49204998299999997	 0 0 0
0.800459963	0.267100016	0.5016300599999999	 0 0 0
0.19954001999999996	0.7766599329999999	1.9920499670000003	 0 0 0
0.300459996	0.232899984	0.9983699780000002	 0 0 0
0.699540037	0.7233399149999999	0.5079500819999999	 0 0 0
0.19954002	0.267100016	0.49837000499999995	 0 0 0
0.800459963	0.7766599329999999	1.007950022	 0 0 0

K_POINTS automatic
6 6 6 0 0 0
