
&CONTROL
    calculation   = 'vc-relax'
    restart_mode  = 'from_scratch'
    prefix        = 'Landau_23'
    pseudo_dir    = '/cluster/scratch/mnoe/QE/pps'
    outdir        = './'
    forc_conv_thr = 1.0d-7
    etot_conv_thr = 1.0d-7

/
&SYSTEM
    ibrav       = 0
    nat         = 32
    ntyp        = 2
    ecutwfc     = 120
    occupations = 'smearing'
    degauss     = 7.35d-4
    tot_charge  = -0.0
/
&ELECTRONS
    conv_thr    = 1.0d-8
    diagonalization = 'david'
/


&IONS
ion_dynamics = 'bfgs'
/

&CELL
cell_dynamics = 'bfgs'
cell_dofree = 'all'
/
CELL_PARAMETERS angstrom
        7.3236460686         0.0000000000         0.0000000000
        0.0000000000         7.7495899200         0.0000000000
        0.0000000000         0.0000000000         7.3236460686

ATOMIC_SPECIES
W 183.84 W_ONCV_LDA-4.0.upf
O 15.9994 O_ONCV_LDA-3.0.upf

ATOMIC_POSITIONS crystal
0.27068998899999996	0.281860003	0.25059	 0 0 0
-0.2505899779999998	0.718139997	-0.729309978	 0 0 0
0.22931001100000004	0.218140012	0.750590011	 0 0 0
0.75059	0.781859972	0.770689989	 0 0 0
0.72931	0.281860003	0.749409989	 0 0 0
0.250590011	0.718139997	0.729310011	 0 0 0
-0.22930997799999986	0.218140012	-0.7505899779999999	 0 0 0
0.249409989	0.781859972	0.22931	 0 0 0
0.27274000499999995	0.00832	0.26649997299999995	 0 0 0
-0.26649994099999996	0.991680023	-0.7272599950000002	 0 0 0
0.22725999499999994	0.491679992	0.766500007	 0 0 0
0.766499973	0.508319977	0.772740005	 0 0 0
0.727260027	0.00832	0.7334999929999999	 0 0 0
0.266500007	0.991680023	0.7272599949999999	 0 0 0
-0.22725999500000005	0.491679992	-0.7664999410000001	 0 0 0
0.2334999929999999	0.508319977	0.22726002700000003	 0 0 0
0.492679957	0.27452999	0.6995400039999999	 0 0 0
0.49849998500000003	0.7342699719999999	0.800459963	 0 0 0
-0.992679925	0.22546999500000003	1.199540037	 0 0 0
0.001500010999999982	0.765729876	0.300460012	 0 0 0
0.507320043	0.27452999	0.300460012	 0 0 0
0.501500015	0.7342699719999999	1.199540037	 0 0 0
-0.007320046999999982	0.22546999500000003	0.800459963	 0 0 0
-1.001499983	0.765729876	0.6995400039999999	 0 0 0
0.6995400369999999	0.23427000199999998	2.001499983	 0 0 0
0.300459996	0.7254699189999999	0.492679957	 0 0 0
0.800459963	0.26572998300000006	0.501500015	 0 0 0
0.19954001999999996	0.774529929	1.992679925	 0 0 0
0.300459996	0.23427000199999998	0.998499989	 0 0 0
0.699540037	0.7254699189999999	0.507320043	 0 0 0
0.19954002	0.26572998300000006	0.49849998500000003	 0 0 0
0.800459963	0.774529929	1.0073200469999999	 0 0 0

K_POINTS automatic
6 6 6 0 0 0
