&CONTROL
    calculation   = 'scf'
    restart_mode  = 'from_scratch'
    prefix        = 'Landau_20'
    pseudo_dir    = '/cluster/scratch/mnoe/QE/pps'
    outdir        = './'
/
&SYSTEM
    ibrav       = 0
    nat         = 32
    ntyp        = 2
    ecutwfc     = 120
    occupations = 'smearing'
    degauss     = 7.35d-4
    tot_charge  = -1.0
/
&ELECTRONS
    conv_thr    = 1.0d-8
    diagonalization = 'david'
/

CELL_PARAMETERS angstrom
   7.450699651   0.000000000   0.000000000
   0.000000000   7.507478923   0.000000000
   0.000000000   0.000000000   7.493381736

ATOMIC_SPECIES
W 183.84 W_ONCV_LDA-4.0.upf
O 15.9994 O_ONCV_LDA-3.0.upf

ATOMIC_POSITIONS crystal
W 0.2315	0.27195525239816576	0.017470001	
W 0.7684999303497606	0.7280447476018342	0.982530022	
W 0.2685	0.22804476589247405	0.517470011	
W 0.7314999643497606	0.7719553234080047	0.482529989	
W 0.7684999303497606	0.27195525239816576	0.482529989	
W 0.2315	0.7280447476018342	0.517470011	
W 0.7314999643497606	0.22804476589247405	0.982530022	
W 0.2685	0.7719553234080047	0.017470001	
O 0.215869987	0.0056216521964260295	0.00543	
O 0.7841299113497606	0.9943783017001347	0.994569993	
O 0.284129997	0.49437837270997365	0.505429974	
O 0.7158699833497606	0.5056216982998653	0.494569993	
O 0.7841299113497606	0.0056216521964260295	0.494569993	
O 0.215869987	0.9943783017001347	0.505429974	
O 0.7158699833497606	0.49437837270997365	0.994569993	
O 0.284129997	0.5056216982998653	0.00543	
O 0.505060008	0.214990001	0.4737590680536424	
O 0.494939992	0.7850100483595995	0.5262410075374762	
O 0.994939959	0.285009969	0.9737591010536424	
O 0.005059958	0.7149900803595995	0.02624085580843861	
O 0.494939992	0.214990001	0.02624085580843861	
O 0.505060008	0.7850100483595995	0.9737591010536424	
O 0.005059958	0.285009969	0.5262410075374762	
O 0.994939959	0.7149900803595995	0.4737590680536424	
O 0.7237590451127631	0.242360002	0.7423299613497606	
O 0.27624087929611807	0.7576400783595996	0.257669986	
O 0.7762410601877155	0.257639998	0.242330079	
O 0.22375908405364242	0.7423600513595995	0.7576699333497606	
O 0.27624087929611807	0.242360002	0.7576699333497606	
O 0.7237590451127631	0.7576400783595996	0.242330079	
O 0.22375908405364242	0.257639998	0.257669986	
O 0.7762410601877155	0.7423600513595995	0.7423299613497606	

K_POINTS automatic
6 6 6 0 0 0
