
&CONTROL
    calculation   = 'vc-relax'
    restart_mode  = 'from_scratch'
    prefix        = 'Landau_40'
    pseudo_dir    = '/cluster/scratch/mnoe/QE/pps'
    outdir        = './'
    forc_conv_thr = 1.0d-7
    etot_conv_thr = 1.0d-7

/
&SYSTEM
    ibrav       = 0
    nat         = 32
    ntyp        = 2
    ecutwfc     = 120
    occupations = 'smearing'
    degauss     = 7.35d-4
    tot_charge  = -0.0
/
&ELECTRONS
    conv_thr    = 1.0d-8
    diagonalization = 'david'
/


&IONS
ion_dynamics = 'bfgs'
/

&CELL
cell_dynamics = 'bfgs'
cell_dofree = 'all'
/
CELL_PARAMETERS angstrom
        7.3236460686         0.0000000000         0.0000000000
        0.0000000000         7.7495899200         0.0000000000
        0.0000000000         0.0000000000         7.3236460686

ATOMIC_SPECIES
W 183.84 W_ONCV_LDA-4.0.upf
O 15.9994 O_ONCV_LDA-3.0.upf

ATOMIC_POSITIONS crystal
W 0.2315	0.27788326483190523	0.017470001	 0 0 0
W 0.768499961861031	0.7221167351680948	0.982530022	 0 0 0
W 0.2685	0.22211675148928028	0.517470011	 0 0 0
W 0.731499995861031	0.7778832747886578	0.482529989	 0 0 0
W 0.768499961861031	0.27788326483190523	0.482529989	 0 0 0
W 0.2315	0.7221167351680948	0.517470011	 0 0 0
W 0.731499995861031	0.22211675148928028	0.982530022	 0 0 0
W 0.2685	0.7778832747886578	0.017470001	 0 0 0
O 0.215869987	0.007236618587117157	0.00543	 0 0 0
O 0.784129942861031	0.992763376667986	0.994569993	 0 0 0
O 0.284129997	0.4927633866247385	0.505429974	 0 0 0
O 0.715870014861031	0.507236623332014	0.494569993	 0 0 0
O 0.784129942861031	0.007236618587117157	0.494569993	 0 0 0
O 0.215869987	0.992763376667986	0.505429974	 0 0 0
O 0.715870014861031	0.4927633866247385	0.994569993	 0 0 0
O 0.284129997	0.507236623332014	0.00543	 0 0 0
O 0.505060008	0.214990001	0.4592639112733256	 0 0 0
O 0.494939992	0.7850100188177835	0.540736099325798	 0 0 0
O 0.994939959	0.285009969	0.9592639442733256	 0 0 0
O 0.005059958	0.7149900508177836	0.04073606773347849	 0 0 0
O 0.494939992	0.214990001	0.04073606773347849	 0 0 0
O 0.505060008	0.7850100188177835	0.9592639442733256	 0 0 0
O 0.005059958	0.285009969	0.540736099325798	 0 0 0
O 0.994939959	0.7149900508177836	0.4592639112733256	 0 0 0
O 0.7092639218131711	0.242360002	0.742329992861031	 0 0 0
O 0.29073606758770526	0.7576400488177836	0.257669986	 0 0 0
O 0.790736120464767	0.257639998	0.242330079	 0 0 0
O 0.20926392727332566	0.7423600218177835	0.757669964861031	 0 0 0
O 0.29073606758770526	0.242360002	0.757669964861031	 0 0 0
O 0.7092639218131711	0.7576400488177836	0.242330079	 0 0 0
O 0.20926392727332566	0.257639998	0.257669986	 0 0 0
O 0.790736120464767	0.7423600218177835	0.742329992861031	 0 0 0

K_POINTS automatic
6 6 6 0 0 0
