
&CONTROL
    calculation   = 'vc-relax'
    restart_mode  = 'from_scratch'
    prefix        = 'Landau_11'
    pseudo_dir    = '/cluster/scratch/mnoe/QE/pps'
    outdir        = './'
    forc_conv_thr = 1.0d-7
    etot_conv_thr = 1.0d-7

/
&SYSTEM
    ibrav       = 0
    nat         = 32
    ntyp        = 2
    ecutwfc     = 120
    occupations = 'smearing'
    degauss     = 7.35d-4
    tot_charge  = -0.0
/
&ELECTRONS
    conv_thr    = 1.0d-8
    diagonalization = 'david'
/


&IONS
ion_dynamics = 'bfgs'
/

&CELL
cell_dynamics = 'bfgs'
cell_dofree = 'all'
/
CELL_PARAMETERS angstrom
        7.3236460686         0.0000000000         0.0000000000
        0.0000000000         7.7495899200         0.0000000000
        0.0000000000         0.0000000000         7.3236460686

ATOMIC_SPECIES
W 183.84 W_ONCV_LDA-4.0.upf
O 15.9994 O_ONCV_LDA-3.0.upf

ATOMIC_POSITIONS crystal
W 0.2405771007357446	0.27333497031207477	0.005292978067733339	 0 0 0
W 0.7558234596351766	0.7266650296879252	-0.00910456704296747	 0 0 0
W 0.25942289926425544	0.22666504752018352	0.5052929804371076	 0 0 0
W 0.7441764521019284	0.7733350271120857	0.49089541760760846	 0 0 0
W 0.7594228459128518	0.27333497031207477	0.4947070195628925	 0 0 0
W 0.24417649144311937	0.7266650296879252	0.5091045823923915	 0 0 0
W 0.7405770658242532	0.22666504752018352	-0.005292968590236608	 0 0 0
W 0.25582350855688063	0.7733350271120857	0.009104576520464203	 0 0 0
O 0.23537683452872754	0.005997528273695313	-0.001278428190470385	 0 0 0
O 0.7635043418397109	-0.005997564751122025	-0.005753457802967455	 0 0 0
O 0.26462315547869436	0.49400249204888885	0.4987215576963008	 0 0 0
O 0.736495566806906	0.505997564751122	0.49424653879749564	 0 0 0
O 0.7646230992428352	0.005997528273695313	0.501278430353812	 0 0 0
O 0.23649558925342884	-0.005997564751122025	0.5057534492526171	 0 0 0
O 0.7353768094037817	0.49400249204888885	0.001278425306014868	 0 0 0
O 0.26350440075399306	0.505997564751122	0.005753454918511937	 0 0 0
O 0.5028751859238058	0.2347865580030613	0.4703853862845394	 0 0 0
O 0.49870508075914566	0.763639389027837	0.5296146741799882	 0 0 0
O -0.002875192825895762	0.2652134296349864	0.9703854192845394	 0 0 0
O 0.0012949053336580004	0.7363606969478126	0.02961455041222493	 0 0 0
O 0.49712481407619424	0.2347865580030613	0.02961455041222493	 0 0 0
O 0.5012949192408543	0.763639389027837	0.9703854192845394	 0 0 0
O 0.002875165320551918	0.2652134296349864	0.5296146741799882	 0 0 0
O -0.0012949328390018443	0.7363606969478126	0.4703853862845394	 0 0 0
O 0.7203853711361464	0.2504584200279505	0.747360687863082	 0 0 0
O 0.2796145683993258	0.7567548238193451	0.2536817965114853	 0 0 0
O 0.7796147194961228	0.24954157688156142	0.24736075656390966	 0 0 0
O 0.2203854022845394	0.7432452624653533	0.7536817545948876	 0 0 0
O 0.2796145683993258	0.2504584200279505	0.7526392300549991	 0 0 0
O 0.7203853711361464	0.7567548238193451	0.24631823027274466	 0 0 0
O 0.2203854022845394	0.24954157688156142	0.2526392702203203	 0 0 0
O 0.7796147194961228	0.7432452624653533	0.7463181633231936	 0 0 0

K_POINTS automatic
6 6 6 0 0 0
