&CONTROL
    calculation   = 'scf'
    restart_mode  = 'from_scratch'
    prefix        = 'Landau_13'
    pseudo_dir    = '/cluster/scratch/mnoe/QE/pps'
    outdir        = './'
/
&SYSTEM
    ibrav       = 0
    nat         = 32
    ntyp        = 2
    ecutwfc     = 120
    occupations = 'smearing'
    degauss     = 7.35d-4
    tot_charge  = -1.0
/
&ELECTRONS
    conv_thr    = 1.0d-8
    diagonalization = 'david'
/

CELL_PARAMETERS angstrom
   7.381022426   0.000000000   0.000000000
   0.000000000   7.642203078   0.000000000
   0.000000000   0.000000000   7.403504699

ATOMIC_SPECIES
W 183.84 W_ONCV_LDA-4.0.upf
O 15.9994 O_ONCV_LDA-3.0.upf

ATOMIC_POSITIONS crystal
W 0.237979985	0.27799715026528465	0.01136	
W 0.7620199614664066	0.7220028497347153	0.988639992	
W 0.262019998	0.22200286601806488	0.511359975	
W 0.7379799974664066	0.7779971590491218	0.488640025	
W 0.7620199614664066	0.27799715026528465	0.488640025	
W 0.237979985	0.7220028497347153	0.511359975	
W 0.7379799974664066	0.22200286601806488	0.988639992	
W 0.262019998	0.7779971590491218	0.01136	
O 0.22781999	0.007267644356606151	0.00353	
O 0.7721800224664066	0.9927323516930526	0.996469958	
O 0.272180026	0.49273236047688973	0.503530042	
O 0.7278199364664066	0.5072676483069474	0.496469991	
O 0.7721800224664066	0.007267644356606151	0.496469991	
O 0.22781999	0.9927323516930526	0.503530042	
O 0.7278199364664066	0.49273236047688973	0.996469958	
O 0.272180026	0.5072676483069474	0.00353	
O 0.503290007	0.227239989	0.45898543898092053	
O 0.496709993	0.7727600302502439	0.5410145703696158	
O 0.996710026	0.272760011	0.9589854719809205	
O 0.003289938	0.7272399772502438	0.04101454108529106	
O 0.496709993	0.227239989	0.04101454108529106	
O 0.503290007	0.7727600302502439	0.9589854719809205	
O 0.003289938	0.272760011	0.5410145703696158	
O 0.996710026	0.7272399772502438	0.45898543898092053	
O 0.7089854501639776	0.245029999	0.7450099984664066	
O 0.29101454048548603	0.7549700352502439	0.254989981	
O 0.791014590903209	0.254970016	0.245010019	
O 0.20898545498092055	0.7450300342502438	0.7549899604664067	
O 0.29101454048548603	0.245029999	0.7549899604664067	
O 0.7089854501639776	0.7549700352502439	0.245010019	
O 0.20898545498092055	0.254970016	0.254989981	
O 0.791014590903209	0.7450300342502438	0.7450099984664066	

K_POINTS automatic
6 6 6 0 0 0
