&CONTROL
    calculation   = 'scf'
    restart_mode  = 'from_scratch'
    prefix        = 'Landau_24'
    pseudo_dir    = '/cluster/scratch/mnoe/QE/pps'
    outdir        = './'
/
&SYSTEM
    ibrav       = 0
    nat         = 32
    ntyp        = 2
    ecutwfc     = 120
    occupations = 'smearing'
    degauss     = 7.35d-4
    tot_charge  = -0.15
/
&ELECTRONS
    conv_thr    = 1.0d-8
    diagonalization = 'david'
/

CELL_PARAMETERS angstrom
   7.337183001   0.000000000   0.000000000
   0.000000000   7.642395936   0.000000000
   0.000000000   0.000000000   7.337183001

ATOMIC_SPECIES
W 183.84 W_ONCV_LDA-4.0.upf
O 15.9994 O_ONCV_LDA-3.0.upf

ATOMIC_POSITIONS crystal
W 0.27157998799999994	0.281860003	0.250620016	
W -0.2506200609999999	0.718139997	-0.728420029	
W 0.22842001199999995	0.218140012	0.750620012	
W 0.7506200160000001	0.781859972	0.7715799879999999	
W 0.7284199840000001	0.281860003	0.7493799879999999	
W 0.25062001199999995	0.718139997	0.728420012	
W -0.2284200289999999	0.218140012	-0.750620061	
W 0.24937998799999994	0.781859972	0.22841998400000002	
O 0.27372998299999995	0.00832	0.26721000899999997	
O -0.267209986	0.991680023	-0.7262699680000002	
O 0.22626998400000004	0.491679992	0.7672099700000001	
O 0.7672100089999999	0.508319977	0.773729983	
O 0.7262699910000001	0.00832	0.732789997	
O 0.26720997	0.991680023	0.7262699840000001	
O -0.2262699680000001	0.491679992	-0.7672099860000001	
O 0.23278999699999997	0.508319977	0.22626999100000006	
O 0.49237002500000004	0.275600007	0.6995400039999999	
O 0.49843005500000004	0.73358001	0.800459963	
O -0.992369976	0.22440002400000003	1.199540037	
O 0.0015699799999999708	0.7664198999999999	0.300460012	
O 0.507629975	0.275600007	0.300460012	
O 0.501569945	0.73358001	1.199540037	
O -0.0076300550000000245	0.22440002400000003	0.800459963	
O -1.001570011	0.7664198999999999	0.6995400039999999	
O 0.6995400369999999	0.23358004	2.001569978	
O 0.300459996	0.7243999329999999	0.492369992	
O 0.800459963	0.266419991	0.501570027	
O 0.19954001999999996	0.7755999769999999	1.992370058	
O 0.300459996	0.23358004	0.998430102	
O 0.699540037	0.7243999329999999	0.507630057	
O 0.19954002	0.266419991	0.498430022	
O 0.800459963	0.7755999769999999	1.0076300219999998	

K_POINTS automatic
6 6 6 0 0 0
