&CONTROL
    calculation   = 'scf'
    restart_mode  = 'from_scratch'
    prefix        = 'Landau_5'
    pseudo_dir    = '/cluster/scratch/mnoe/QE/pps'
    outdir        = './'
/
&SYSTEM
    ibrav       = 0
    nat         = 32
    ntyp        = 2
    ecutwfc     = 120
    occupations = 'smearing'
    degauss     = 7.35d-4
    tot_charge  = -0.6
/
&ELECTRONS
    conv_thr    = 1.0d-8
    diagonalization = 'david'
/

CELL_PARAMETERS angstrom
   7.387246205   0.000000000   0.000000000
   0.000000000   7.700125877   0.000000000
   0.000000000   0.000000000   7.388046082

ATOMIC_SPECIES
W 183.84 W_ONCV_LDA-4.0.upf
O 15.9994 O_ONCV_LDA-3.0.upf

ATOMIC_POSITIONS crystal
W 0.24769011786641806	0.2779329215874576	0.0021812780099220884	
W 0.7523098591359767	0.7220670784125425	-0.00218127513817674	
W 0.25230988213358196	0.22206709471723057	0.502181279258507	
W 0.7476900991140016	0.7779329310327912	0.49781872074149297	
W 0.7523098591359767	0.2779329215874576	0.49781872074149297	
W 0.24769011786641806	0.7220670784125425	0.502181279258507	
W 0.7476900991140016	0.22206709471723057	-0.00218127513817674	
W 0.25230988213358196	0.7779329310327912	0.0021812780099220884	
O 0.24573857798661516	0.007250146559972167	0.0006779816208297263	
O 0.7542613950203078	-0.007250150958423922	-0.0006779824948391772	
O 0.25426142001564894	0.49274985848690966	0.5006779783745089	
O 0.7457385632296705	0.507250150958424	0.4993220175051608	
O 0.7542613950203078	0.007250146559972167	0.4993220175051608	
O 0.24573857798661516	-0.007250150958423922	0.5006779783745089	
O 0.7457385632296705	0.49274985848690966	-0.0006779824948391772	
O 0.25426142001564894	0.507250150958424	0.0006779816208297263	
O 0.500631784977026	0.2456287042601718	0.45914249073567015	
O 0.49936821502297396	0.7543713021830283	0.5408575193190397	
O -0.0006317890973563313	0.2543712919940734	0.9591425237356701	
O 0.0006317787341013518	0.7456287144491267	0.040857488733060804	
O 0.49936821502297396	0.2456287042601718	0.040857488733060804	
O 0.500631784977026	0.7543713021830283	0.9591425237356701	
O 0.0006317787341013518	0.2543712919940734	0.5408575193190397	
O -0.0006317890973563313	0.7456287144491267	0.45914249073567015	
O 0.7091425015559711	0.2490460813577945	0.7490423162262744	
O 0.2908574883893189	0.7509539289560189	0.2509576628987148	
O 0.7908575401940505	0.2509539186422055	0.2490423452170873	
O 0.20914250673567017	0.7490460878009946	0.750957642023704	
O 0.2908574883893189	0.2490460813577945	0.750957642023704	
O 0.7091425015559711	0.7509539289560189	0.2490423452170873	
O 0.20914250673567017	0.2509539186422055	0.2509576628987148	
O 0.7908575401940505	0.7490460878009946	0.7490423162262744	

K_POINTS automatic
6 6 6 0 0 0
