&CONTROL
    calculation   = 'scf'
    restart_mode  = 'from_scratch'
    prefix        = 'Landau_18'
    pseudo_dir    = '/cluster/scratch/mnoe/QE/pps'
    outdir        = './'
/
&SYSTEM
    ibrav       = 0
    nat         = 32
    ntyp        = 2
    ecutwfc     = 120
    occupations = 'smearing'
    degauss     = 7.35d-4
    tot_charge  = -1.0
/
&ELECTRONS
    conv_thr    = 1.0d-8
    diagonalization = 'david'
/

CELL_PARAMETERS angstrom
   7.371356660   0.000000000   0.000000000
   0.000000000   7.589841267   0.000000000
   0.000000000   0.000000000   7.415919948

ATOMIC_SPECIES
W 183.84 W_ONCV_LDA-4.0.upf
O 15.9994 O_ONCV_LDA-3.0.upf

ATOMIC_POSITIONS crystal
W 0.233349992	0.2782809386487147	0.01572	
W 0.7666500049749279	0.7217190613512853	0.984279969	
W 0.266650024	0.22171907754035228	0.515719998	
W 0.7333499569749278	0.778280944509792	0.484280002	
W 0.7666500049749279	0.2782809386487147	0.484280002	
W 0.233349992	0.7217190613512853	0.515719998	
W 0.7333499569749278	0.22171907754035228	0.984279969	
W 0.266650024	0.778280944509792	0.01572	
O 0.219290006	0.007344956728405441	0.00489	
O 0.7807099429749278	0.9926550413011873	0.995109966	
O 0.280709994	0.49265504716226466	0.504890034	
O 0.7192900189749278	0.5073449586988127	0.495109999	
O 0.7807099429749278	0.007344956728405441	0.495109999	
O 0.219290006	0.9926550413011873	0.504890034	
O 0.7192900189749278	0.49265504716226466	0.995109966	
O 0.280709994	0.5073449586988127	0.00489	
O 0.504549987	0.218490008	0.45829152054599304	
O 0.495450013	0.7815099938360052	0.5417084856932182	
O 0.995450046	0.281510007	0.958291553545993	
O 0.00454998	0.7184900108360052	0.04170846216013063	
O 0.495450013	0.218490008	0.04170846216013063	
O 0.504549987	0.7815099938360052	0.958291553545993	
O 0.00454998	0.281510007	0.5417084856932182	
O 0.995450046	0.7184900108360052	0.45829152054599304	
O 0.7082915333318539	0.243120003	0.7430999429749278	
O 0.2917084604289347	0.7568799988360051	0.256900006	
O 0.7917085047182904	0.256879981	0.243099929	
O 0.20829153654599308	0.7431200058360051	0.7569000189749279	
O 0.2917084604289347	0.243120003	0.7569000189749279	
O 0.7082915333318539	0.7568799988360051	0.243099929	
O 0.20829153654599308	0.256879981	0.256900006	
O 0.7917085047182904	0.7431200058360051	0.7430999429749278	

K_POINTS automatic
6 6 6 0 0 0
