
&CONTROL
    calculation   = 'vc-relax'
    restart_mode  = 'from_scratch'
    prefix        = 'Landau_14'
    pseudo_dir    = '/cluster/scratch/mnoe/QE/pps'
    outdir        = './'
    forc_conv_thr = 1.0d-7
    etot_conv_thr = 1.0d-7

/
&SYSTEM
    ibrav       = 0
    nat         = 32
    ntyp        = 2
    ecutwfc     = 120
    occupations = 'smearing'
    degauss     = 7.35d-4
    tot_charge  = -0.0
/
&ELECTRONS
    conv_thr    = 1.0d-8
    diagonalization = 'david'
/


&IONS
ion_dynamics = 'bfgs'
/

&CELL
cell_dynamics = 'bfgs'
cell_dofree = 'all'
/
CELL_PARAMETERS angstrom
        7.3236460686         0.0000000000         0.0000000000
        0.0000000000         7.7495899200         0.0000000000
        0.0000000000         0.0000000000         7.3236460686

ATOMIC_SPECIES
W 183.84 W_ONCV_LDA-4.0.upf
O 15.9994 O_ONCV_LDA-3.0.upf

ATOMIC_POSITIONS crystal
0.24353001	0.28312704925684	0.00612	 0 0 0
0.756469974	0.7168729507431599	0.993880002	 0 0 0
0.25646999	0.21687296406421	0.50612003	 0 0 0
0.743530026	0.7831270182568401	0.493880002	 0 0 0
0.756469974	0.28312704925684	0.493880002	 0 0 0
0.24353001	0.7168729507431599	0.50612003	 0 0 0
0.743530026	0.21687296406421	0.993880002	 0 0 0
0.25646999	0.7831270182568401	0.00612	 0 0 0
0.238059992	0.010717540711929999	0.0019	 0 0 0
0.761940025	0.98928248531018	0.99809997	 0 0 0
0.261940008	0.48928245084035	0.50190003	 0 0 0
0.738059975	0.51071752162948	0.498100002	 0 0 0
0.761940025	0.010717540711929999	0.498100002	 0 0 0
0.238059992	0.98928248531018	0.50190003	 0 0 0
0.738059975	0.48928245084035	0.99809997	 0 0 0
0.261940008	0.51071752162948	0.0019	 0 0 0
0.501770034	0.237749996	0.4560890327772	 0 0 0
0.498229966	0.762250035	0.54391094149825	 0 0 0
0.998229998	0.262250004	0.95608906040456	 0 0 0
0.00177002	0.737749996	0.04391098814772	 0 0 0
0.498229966	0.237749996	0.04391098814772	 0 0 0
0.501770034	0.762250035	0.95608906040456	 0 0 0
0.00177002	0.262250004	0.54391094149825	 0 0 0
0.998229998	0.737749996	0.4560890327772	 0 0 0
0.70608906947089	0.247320003	0.747319994	 0 0 0
0.29391097259544	0.752680027	0.252680006	 0 0 0
0.79391093780456	0.252679997	0.247319929	 0 0 0
0.20608904888913002	0.747320003	0.752680006	 0 0 0
0.29391097259544	0.247320003	0.752680006	 0 0 0
0.70608906947089	0.752680027	0.247319929	 0 0 0
0.20608904888913002	0.252679997	0.252680006	 0 0 0
0.79391093780456	0.747320003	0.747319994	 0 0 0

K_POINTS automatic
6 6 6 0 0 0
