
&CONTROL
    calculation   = 'vc-relax'
    restart_mode  = 'from_scratch'
    prefix        = 'Landau_13'
    pseudo_dir    = '/cluster/scratch/mnoe/QE/pps'
    outdir        = './'
    forc_conv_thr = 1.0d-7
    etot_conv_thr = 1.0d-7

/
&SYSTEM
    ibrav       = 0
    nat         = 32
    ntyp        = 2
    ecutwfc     = 120
    occupations = 'smearing'
    degauss     = 7.35d-4
    tot_charge  = -0.0
/
&ELECTRONS
    conv_thr    = 1.0d-8
    diagonalization = 'david'
/


&IONS
ion_dynamics = 'bfgs'
/

&CELL
cell_dynamics = 'bfgs'
cell_dofree = 'all'
/
CELL_PARAMETERS angstrom
        7.3236460686         0.0000000000         0.0000000000
        0.0000000000         7.7495899200         0.0000000000
        0.0000000000         0.0000000000         7.3236460686

ATOMIC_SPECIES
W 183.84 W_ONCV_LDA-4.0.upf
O 15.9994 O_ONCV_LDA-3.0.upf

ATOMIC_POSITIONS crystal
W 0.243990009	0.28303654595278005	0.00568	 0 0 0
W 0.756010024	0.71696345404722	0.994319964	 0 0 0
W 0.256009991	0.216963467488195	0.505680036	 0 0 0
W 0.743989976	0.78303651495278	0.494319996	 0 0 0
W 0.756010024	0.28303654595278005	0.494319996	 0 0 0
W 0.243990009	0.71696345404722	0.505680036	 0 0 0
W 0.743989976	0.216963467488195	0.994319964	 0 0 0
W 0.256009991	0.78303651495278	0.00568	 0 0 0
O 0.238910011	0.010546287803935	0.00177	 0 0 0
O 0.761089989	0.9894537380023101	0.998229998	 0 0 0
O 0.261089973	0.489453703780325	0.501770034	 0 0 0
O 0.738910011	0.51054626844166	0.498229998	 0 0 0
O 0.761089989	0.010546287803935	0.498229998	 0 0 0
O 0.238910011	0.9894537380023101	0.501770034	 0 0 0
O 0.738910011	0.489453703780325	0.998229998	 0 0 0
O 0.261089973	0.51054626844166	0.00177	 0 0 0
O 0.501640006	0.238620002	0.4556212450074	 0 0 0
O 0.498359994	0.761380028	0.544378728748375	 0 0 0
O 0.998359961	0.261380028	0.95562127301852	 0 0 0
O 0.001640081	0.738620002	0.04437877556574	 0 0 0
O 0.498359994	0.238620002	0.04437877556574	 0 0 0
O 0.501640006	0.761380028	0.95562127301852	 0 0 0
O 0.001640081	0.261380028	0.544378728748375	 0 0 0
O 0.998359961	0.738620002	0.4556212450074	 0 0 0
O 0.705621281437255	0.247519999	0.747509991	 0 0 0
O 0.29437875998148	0.752480047	0.252489977	 0 0 0
O 0.7943787253185199	0.252480001	0.247509958	 0 0 0
O 0.20562126111133502	0.747519984	0.752490009	 0 0 0
O 0.29437875998148	0.247519999	0.752490009	 0 0 0
O 0.705621281437255	0.752480047	0.247509958	 0 0 0
O 0.20562126111133502	0.252480001	0.252489977	 0 0 0
O 0.7943787253185199	0.747519984	0.747509991	 0 0 0

K_POINTS automatic
6 6 6 0 0 0
