
&CONTROL
    calculation   = 'vc-relax'
    restart_mode  = 'from_scratch'
    prefix        = 'Landau_8'
    pseudo_dir    = '/cluster/scratch/mnoe/QE/pps'
    outdir        = './'
    forc_conv_thr = 1.0d-7
    etot_conv_thr = 1.0d-7

/
&SYSTEM
    ibrav       = 0
    nat         = 32
    ntyp        = 2
    ecutwfc     = 120
    occupations = 'smearing'
    degauss     = 7.35d-4
    tot_charge  = -0.0
/
&ELECTRONS
    conv_thr    = 1.0d-8
    diagonalization = 'david'
/


&IONS
ion_dynamics = 'bfgs'
/

&CELL
cell_dynamics = 'bfgs'
cell_dofree = 'all'
/
CELL_PARAMETERS angstrom
        7.3236460686         0.0000000000         0.0000000000
        0.0000000000         7.7495899200         0.0000000000
        0.0000000000         0.0000000000         7.3236460686

ATOMIC_SPECIES
W 183.84 W_ONCV_LDA-4.0.upf
O 15.9994 O_ONCV_LDA-3.0.upf

ATOMIC_POSITIONS crystal
W 0.2431469823532688	0.27565997922696345	0.0038494385947151566	 0 0 0
W 0.7542352433710375	0.7243400207730365	-0.006621503303976342	 0 0 0
W 0.2568530176467312	0.22434003783286074	0.5038494403178964	 0 0 0
W 0.7457646924377661	0.7756600120815168	0.49337848553280617	 0 0 0
W 0.7568529788457103	0.27565997922696345	0.4961505596821036	 0 0 0
W 0.24576472104954136	0.7243400207730365	0.5066215144671938	 0 0 0
W 0.7431469569630932	0.22434003783286074	-0.0038494317019902606	 0 0 0
W 0.25423527895045867	0.7756600120815168	0.006621510196701238	 0 0 0
O 0.2393649705663473	0.006630929653596591	-0.0009297659567057345	 0 0 0
O 0.7598213395197898	-0.006630949909906921	-0.004184332947612695	 0 0 0
O 0.26063502216632317	0.49336908294464643	0.4990702237791278	 0 0 0
O 0.7401785940413861	0.5066309499099069	0.4958156645799968	 0 0 0
O 0.7606349812675165	0.006630929653596591	0.5009297675300451	 0 0 0
O 0.24017861036613006	-0.006630949909906921	0.5041843267291761	 0 0 0
O 0.7393649522936594	0.49336908294464643	0.0009297638589199043	 0 0 0
O 0.2598213823665404	0.5066309499099069	0.004184330849826864	 0 0 0
O 0.5020910443082224	0.23893567854768097	0.46470028202511954	 0 0 0
O 0.49905824055210596	0.7599195515656996	0.5352997529490823	 0 0 0
O -0.0020910493279241906	0.2610643124618083	0.9647003150251195	 0 0 0
O 0.0009417493335694548	0.7400805027802273	0.03529967629979995	 0 0 0
O 0.4979089556917776	0.23893567854768097	0.03529967629979995	 0 0 0
O 0.500941759447894	0.7599195515656996	0.9647003150251195	 0 0 0
O 0.0020910293240377588	0.2610643124618083	0.5352997529490823	 0 0 0
O -0.0009417693374558867	0.7400805027802273	0.46470028202511954	 0 0 0
O 0.7147002800081065	0.250333396383964	0.7480805002640596	 0 0 0
O 0.28529968501769154	0.7549125950504327	0.2526776701901711	 0 0 0
O 0.7852997859062711	0.2496666013684083	0.24808055022829792	 0 0 0
O 0.21470029802511958	0.7450874595202569	0.7526776397053728	 0 0 0
O 0.28529968501769154	0.250333396383964	0.7519194400399993	 0 0 0
O 0.7147002800081065	0.7549125950504327	0.24732234928926883	 0 0 0
O 0.21470029802511958	0.2496666013684083	0.25191946925114206	 0 0 0
O 0.7852997859062711	0.7450874595202569	0.7473223005986862	 0 0 0

K_POINTS automatic
6 6 6 0 0 0
