
&CONTROL
    calculation   = 'vc-relax'
    restart_mode  = 'from_scratch'
    prefix        = 'Landau_40'
    pseudo_dir    = '/cluster/scratch/mnoe/QE/pps'
    outdir        = './'
    forc_conv_thr = 1.0d-7
    etot_conv_thr = 1.0d-7

/
&SYSTEM
    ibrav       = 0
    nat         = 32
    ntyp        = 2
    ecutwfc     = 120
    occupations = 'smearing'
    degauss     = 7.35d-4
    tot_charge  = -0.0
/
&ELECTRONS
    conv_thr    = 1.0d-8
    diagonalization = 'david'
/


&IONS
ion_dynamics = 'bfgs'
/

&CELL
cell_dynamics = 'bfgs'
cell_dofree = 'all'
/
CELL_PARAMETERS angstrom
        7.3236460686         0.0000000000         0.0000000000
        0.0000000000         7.7495899200         0.0000000000
        0.0000000000         0.0000000000         7.3236460686

ATOMIC_SPECIES
W 183.84 W_ONCV_LDA-4.0.upf
O 15.9994 O_ONCV_LDA-3.0.upf

ATOMIC_POSITIONS crystal
W 0.25	0.2762841384358335	0.0	 0 0 0
W 0.7499999703606264	0.7237158615641665	0.0	 0 0 0
W 0.25	0.22371587841662724	0.5	 0 0 0
W 0.7499999703606264	0.77628416486212	0.5	 0 0 0
W 0.7499999703606264	0.2762841384358335	0.5	 0 0 0
W 0.25	0.7237158615641665	0.5	 0 0 0
W 0.7499999703606264	0.22371587841662724	0.0	 0 0 0
W 0.25	0.77628416486212	0.0	 0 0 0
O 0.25	0.00680096913243244	0.0	 0 0 0
O 0.7499999703606264	0.9931990149658897	0.0	 0 0 0
O 0.25	0.49319904139217613	0.5	 0 0 0
O 0.7499999703606264	0.5068009850341103	0.5	 0 0 0
O 0.7499999703606264	0.00680096913243244	0.5	 0 0 0
O 0.25	0.9931990149658897	0.5	 0 0 0
O 0.7499999703606264	0.49319904139217613	0.0	 0 0 0
O 0.25	0.5068009850341103	0.0	 0 0 0
O 0.5	0.25	0.46317408995154075	 0 0 0
O 0.5	0.7500000127869129	0.5368259381796674	 0 0 0
O 0.0	0.25	0.9631741229515408	 0 0 0
O 0.0	0.7500000127869129	0.0368258741795553	 0 0 0
O 0.5	0.25	0.0368258741795553	 0 0 0
O 0.5	0.7500000127869129	0.9631741229515408	 0 0 0
O 0.0	0.25	0.5368259381796674	 0 0 0
O 0.0	0.7500000127869129	0.46317408995154075	 0 0 0
O 0.7131740914597063	0.25	0.7499999703606264	 0 0 0
O 0.2868258804090855	0.7500000127869129	0.25	 0 0 0
O 0.786825967819041	0.25	0.25	 0 0 0
O 0.21317410595154077	0.7500000127869129	0.7499999703606264	 0 0 0
O 0.2868258804090855	0.25	0.7499999703606264	 0 0 0
O 0.7131740914597063	0.7500000127869129	0.25	 0 0 0
O 0.21317410595154077	0.25	0.25	 0 0 0
O 0.786825967819041	0.7500000127869129	0.7499999703606264	 0 0 0

K_POINTS automatic
6 6 6 0 0 0
