
&CONTROL
    calculation   = 'vc-relax'
    restart_mode  = 'from_scratch'
    prefix        = 'Landau_40'
    pseudo_dir    = '/cluster/scratch/mnoe/QE/pps'
    outdir        = './'
    forc_conv_thr = 1.0d-7
    etot_conv_thr = 1.0d-7

/
&SYSTEM
    ibrav       = 0
    nat         = 32
    ntyp        = 2
    ecutwfc     = 120
    occupations = 'smearing'
    degauss     = 7.35d-4
    tot_charge  = -0.0
/
&ELECTRONS
    conv_thr    = 1.0d-8
    diagonalization = 'david'
/


&IONS
ion_dynamics = 'bfgs'
/

&CELL
cell_dynamics = 'bfgs'
cell_dofree = 'all'
/
CELL_PARAMETERS angstrom
        7.3236460686         0.0000000000         0.0000000000
        0.0000000000         7.7495899200         0.0000000000
        0.0000000000         0.0000000000         7.3236460686

ATOMIC_SPECIES
W 183.84 W_ONCV_LDA-4.0.upf
O 15.9994 O_ONCV_LDA-3.0.upf

ATOMIC_POSITIONS crystal
W 0.267340006	0.2596650968233566	-0.98174998	 0 0 0
W 0.7317498619131061	0.7403349031766434	-0.982659994	 0 0 0
W 0.232659994	0.2403349255570739	-0.481749996	 0 0 0
W 0.7682498689131061	0.7596653256167137	-0.48265999400000004	 0 0 0
W 0.7326598759131061	0.2596650968233566	-0.518249987	 0 0 0
W 0.268249987	0.7403349031766434	-0.517340006	 0 0 0
W 0.7673398549131061	0.2403349255570739	-1.018249987	 0 0 0
W 0.231749996	0.7596653256167137	-1.017339973	 0 0 0
O 0.286960012	0.002277982021444516	-0.963220004	 0 0 0
O 0.713219885913106	0.9977218759895071	-0.96304002	 0 0 0
O 0.213039988	0.4977221047828642	-0.46322000399999996	 0 0 0
O 0.7867799099131061	0.5022781240104929	-0.463039988	 0 0 0
O 0.7130399019131061	0.002277982021444516	-0.5367799959999999	 0 0 0
O 0.286779996	0.9977218759895071	-0.536960012	 0 0 0
O 0.7869598939131061	0.4977221047828642	-1.036780028	 0 0 0
O 0.213220004	0.5022781240104929	-1.036960012	 0 0 0
O 0.492300042	0.294149999	-0.49627010810363	 0 0 0
O 0.50505001	0.7187500957064632	-0.5037296323421514	 0 0 0
O 0.007700026	0.205850001	-0.99627010810363	 0 0 0
O 0.994950023	0.7812501257064632	-1.0037300665484343	 0 0 0
O 0.507700024	0.294149999	-1.0037300665484343	 0 0 0
O 0.49494999	0.7187500957064632	-0.99627010810363	 0 0 0
O 0.992299944	0.205850001	-0.5037296323421514	 0 0 0
O 0.005050004	0.7812501257064632	-0.49627010810363	 0 0 0
O 0.7537297344290453	0.21875	-0.25505012208689387	 0 0 0
O 0.24626999001673575	0.7058501417064632	-0.757700024	 0 0 0
O 0.7462704697447424	0.281250015	-0.75505001	 0 0 0
O 0.2537298758963699	0.7941500797064632	-0.2577001440868939	 0 0 0
O 0.24626999001673575	0.21875	-1.2449501410868937	 0 0 0
O 0.7537297344290453	0.7058501417064632	-0.742300042	 0 0 0
O 0.2537298758963699	0.281250015	-0.7449499900000001	 0 0 0
O 0.7462704697447424	0.7941500797064632	-1.2423000620868938	 0 0 0

K_POINTS automatic
6 6 6 0 0 0
