
&CONTROL
    calculation   = 'vc-relax'
    restart_mode  = 'from_scratch'
    prefix        = 'Landau_40'
    pseudo_dir    = '/cluster/scratch/mnoe/QE/pps'
    outdir        = './'
    forc_conv_thr = 1.0d-7
    etot_conv_thr = 1.0d-7

/
&SYSTEM
    ibrav       = 0
    nat         = 32
    ntyp        = 2
    ecutwfc     = 120
    occupations = 'smearing'
    degauss     = 7.35d-4
    tot_charge  = -0.0
/
&ELECTRONS
    conv_thr    = 1.0d-8
    diagonalization = 'david'
/


&IONS
ion_dynamics = 'bfgs'
/

&CELL
cell_dynamics = 'bfgs'
cell_dofree = 'all'
/
CELL_PARAMETERS angstrom
        7.3236460686         0.0000000000         0.0000000000
        0.0000000000         7.7495899200         0.0000000000
        0.0000000000         0.0000000000         7.3236460686

ATOMIC_SPECIES
W 183.84 W_ONCV_LDA-4.0.upf
O 15.9994 O_ONCV_LDA-3.0.upf

ATOMIC_POSITIONS crystal
W 0.28597001099999997	0.29544398860000004	0.251029982	 0 0 0
W -0.25103000499999994	0.7045560114	-0.7140300390000001	 0 0 0
W 0.21402998899999998	0.2045560084	0.7510299890000001	 0 0 0
W 0.7510299819999999	0.7954439576	0.7859700110000001	 0 0 0
W 0.7140300159999999	0.29544398860000004	0.748970011	 0 0 0
W 0.25102998899999995	0.7045560114	0.714029989	 0 0 0
W -0.21403003899999995	0.2045560084	-0.7510300050000001	 0 0 0
W 0.248970011	0.7954439576	0.214030016	 0 0 0
O 0.2895600199999999	0.0340240012	0.278699964	 0 0 0
O -0.27869995700000005	0.9659760542	-0.7104400290000001	 0 0 0
O 0.21044002899999997	0.46597598600000006	0.7787000230000001	 0 0 0
O 0.778699964	0.5340240202000001	0.7895600039999999	 0 0 0
O 0.710440036	0.0340240012	0.721299994	 0 0 0
O 0.27870003899999996	0.9659760542	0.710440013	 0 0 0
O -0.21044002900000003	0.46597598600000006	-0.7786999570000002	 0 0 0
O 0.22130000999999994	0.5340240202000001	0.210440036	 0 0 0
O 0.48727000600000003	0.29264999700000005	0.769752052	 0 0 0
O 0.49739002200000004	0.722629954	0.730247993	 0 0 0
O -0.987270038	0.20735003300000004	1.2697520274	 0 0 0
O 0.0026099629999999686	0.7773698949999999	0.2302480168	 0 0 0
O 0.5127299940000001	0.29264999700000005	0.2302480168	 0 0 0
O 0.5026099780000001	0.722629954	1.2697520274	 0 0 0
O -0.012729944000000017	0.20735003300000004	0.730247993	 0 0 0
O -1.0026099450000001	0.7773698949999999	0.769752052	 0 0 0
O 0.7697521245999999	0.22263002900000006	2.002609945	 0 0 0
O 0.23024800560000003	0.7073499269999999	0.487270006	 0 0 0
O 0.7302479533999999	0.27737000100000003	0.5026099129999999	 0 0 0
O 0.26975206919999994	0.792649922	1.987269973	 0 0 0
O 0.23024800560000003	0.22263002900000006	0.997389972	 0 0 0
O 0.7697521246	0.7073499269999999	0.5127299289999999	 0 0 0
O 0.2697520692	0.27737000100000003	0.49739002199999993	 0 0 0
O 0.7302479533999999	0.792649922	1.012729944	 0 0 0

K_POINTS automatic
6 6 6 0 0 0
