
&CONTROL
    calculation   = 'vc-relax'
    restart_mode  = 'from_scratch'
    prefix        = 'Landau_9'
    pseudo_dir    = '/cluster/scratch/mnoe/QE/pps'
    outdir        = './'
    forc_conv_thr = 1.0d-7
    etot_conv_thr = 1.0d-7

/
&SYSTEM
    ibrav       = 0
    nat         = 32
    ntyp        = 2
    ecutwfc     = 120
    occupations = 'smearing'
    degauss     = 7.35d-4
    tot_charge  = -0.0
/
&ELECTRONS
    conv_thr    = 1.0d-8
    diagonalization = 'david'
/


&IONS
ion_dynamics = 'bfgs'
/

&CELL
cell_dynamics = 'bfgs'
cell_dofree = 'all'
/
CELL_PARAMETERS angstrom
        7.3236460686         0.0000000000         0.0000000000
        0.0000000000         7.7495899200         0.0000000000
        0.0000000000         0.0000000000         7.3236460686

ATOMIC_SPECIES
W 183.84 W_ONCV_LDA-4.0.upf
O 15.9994 O_ONCV_LDA-3.0.upf

ATOMIC_POSITIONS crystal
W 0.245840001	0.2796314341145873	0.00393	 0 0 0
W 0.7541599871536961	0.7203685658854126	0.996070041	 0 0 0
W 0.254159983	0.22036858162580666	0.503929959	 0 0 0
W 0.7458399891536962	0.779631426066801	0.496070009	 0 0 0
W 0.7541599871536961	0.2796314341145873	0.496070009	 0 0 0
W 0.245840001	0.7203685658854126	0.503929959	 0 0 0
W 0.7458399891536962	0.22036858162580666	0.996070041	 0 0 0
W 0.254159983	0.779631426066801	0.00393	 0 0 0
O 0.242320003	0.0077128717441958565	0.00122	 0 0 0
O 0.7576800021536961	0.9922871357075304	0.998779998	 0 0 0
O 0.257679997	0.4922871276597441	0.501220002	 0 0 0
O 0.7423199741536962	0.5077128642924696	0.498779998	 0 0 0
O 0.7576800021536961	0.0077128717441958565	0.498779998	 0 0 0
O 0.242320003	0.9922871357075304	0.501220002	 0 0 0
O 0.7423199741536962	0.4922871276597441	0.998779998	 0 0 0
O 0.257679997	0.5077128642924696	0.00122	 0 0 0
O 0.501140012	0.242119995	0.4549892934120695	 0 0 0
O 0.498859988	0.7578799551059099	0.5450106980209322	 0 0 0
O 0.998860021	0.257880005	0.9549893264120696	 0 0 0
O 0.001139998	0.7421200361059098	0.045010701856898684	 0 0 0
O 0.498859988	0.242119995	0.045010701856898684	 0 0 0
O 0.501140012	0.7578799551059099	0.9549893264120696	 0 0 0
O 0.001139998	0.257880005	0.5450106980209322	 0 0 0
O 0.998860021	0.7421200361059098	0.4549892934120695	 0 0 0
O 0.7049893138253717	0.248280001	0.7482699651536961	 0 0 0
O 0.29501069474162656	0.7517200101059098	0.251730023	 0 0 0
O 0.795010709867236	0.251720015	0.248270042	 0 0 0
O 0.20498930941206955	0.7482799811059099	0.7517300111536962	 0 0 0
O 0.29501069474162656	0.248280001	0.7517300111536962	 0 0 0
O 0.7049893138253717	0.7517200101059098	0.248270042	 0 0 0
O 0.20498930941206955	0.251720015	0.251730023	 0 0 0
O 0.795010709867236	0.7482799811059099	0.7482699651536961	 0 0 0

K_POINTS automatic
6 6 6 0 0 0
