&CONTROL
    calculation   = 'scf'
    restart_mode  = 'from_scratch'
    prefix        = 'Landau_11'
    pseudo_dir    = '/cluster/scratch/mnoe/QE/pps'
    outdir        = './'
/
&SYSTEM
    ibrav       = 0
    nat         = 32
    ntyp        = 2
    ecutwfc     = 120
    occupations = 'smearing'
    degauss     = 7.35d-4
    tot_charge  = -0.52
/
&ELECTRONS
    conv_thr    = 1.0d-8
    diagonalization = 'david'
/

CELL_PARAMETERS angstrom
   7.326238906   0.000000000   0.000000000
   0.000000000   7.726796610   0.000000000
   0.000000000   0.000000000   7.326238906

ATOMIC_SPECIES
W 183.84 W_ONCV_LDA-4.0.upf
O 15.9994 O_ONCV_LDA-3.0.upf

ATOMIC_POSITIONS crystal
W 0.2598899759999999	0.281860003	0.250289992	
W -0.25028994300000007	0.718139997	-0.7401099590000001	
W 0.24010999100000002	0.218140012	0.750289975	
W 0.750289992	0.781859972	0.759889976	
W 0.7401100079999999	0.281860003	0.7497099919999999	
W 0.250289975	0.718139997	0.740109991	
W -0.24010995899999998	0.218140012	-0.7502899430000002	
W 0.24970999199999994	0.781859972	0.24011000799999993	
O 0.260869992	0.00832	0.257889955	
O -0.25788993400000004	0.991680023	-0.7391300240000002	
O 0.239130024	0.491679992	0.75789	
O 0.757889955	0.508319977	0.760869976	
O 0.739130045	0.00832	0.7421099840000001	
O 0.257890016	0.991680023	0.7391300080000001	
O -0.23913002400000005	0.491679992	-0.7578899340000002	
O 0.24211	0.508319977	0.239130045	
O 0.49650000799999994	0.26173000999999996	0.6995400039999999	
O 0.49927995999999997	0.742469961	0.800459963	
O -0.9964999910000001	0.23827002200000003	1.199540037	
O 0.0007200200000000007	0.757529948	0.300460012	
O 0.5034999920000001	0.26173000999999996	0.300460012	
O 0.50072004	0.742469961	1.199540037	
O -0.003499980000000056	0.23827002200000003	0.800459963	
O -1.000719991	0.757529948	0.6995400039999999	
O 0.6995400369999999	0.242470022	2.000720007	
O 0.300459996	0.738270007	0.49650002399999993	
O 0.800459963	0.25753001	0.500720024	
O 0.19954001999999996	0.7617299019999999	1.9964999749999999	
O 0.300459996	0.242470022	0.999279964	
O 0.699540037	0.738270007	0.5034999760000001	
O 0.19954002	0.25753001	0.49927997599999996	
O 0.800459963	0.7617299019999999	1.003499996	

K_POINTS automatic
6 6 6 0 0 0
