&CONTROL
    calculation   = 'scf'
    restart_mode  = 'from_scratch'
    prefix        = 'Landau_12'
    pseudo_dir    = '/cluster/scratch/mnoe/QE/pps'
    outdir        = './'
/
&SYSTEM
    ibrav       = 0
    nat         = 32
    ntyp        = 2
    ecutwfc     = 120
    occupations = 'smearing'
    degauss     = 7.35d-4
    tot_charge  = -1.0
/
&ELECTRONS
    conv_thr    = 1.0d-8
    diagonalization = 'david'
/

CELL_PARAMETERS angstrom
   7.457600550   0.000000000   0.000000000
   0.000000000   7.634474589   0.000000000
   0.000000000   0.000000000   7.461259946

ATOMIC_SPECIES
W 183.84 W_ONCV_LDA-4.0.upf
O 15.9994 O_ONCV_LDA-3.0.upf

ATOMIC_POSITIONS crystal
W 0.24445628287940335	0.2724350076098981	0.005235067223813012	
W 0.755543661926344	0.7275649923901019	-0.005235060331624175	
W 0.25554371712059665	0.2275650105213534	0.5052350702204169	
W 0.7444562378736038	0.7724350736786987	0.49476492977958314	
W 0.755543661926344	0.2724350076098981	0.49476492977958314	
W 0.24445628287940335	0.7275649923901019	0.5052350702204169	
W 0.7444562378736038	0.2275650105213534	-0.005235060331624175	
W 0.25554371712059665	0.7724350736786987	0.005235067223813012	
O 0.23977258716787642	0.005752351743933201	0.0016271558899913431	
O 0.7602273480487387	-0.005752394500217443	-0.001627157987614025	
O 0.26022740803755745	0.4942476715685831	0.5016271480988214	
O 0.7397725517512092	0.5057523945002175	0.49837284201238596	
O 0.7602273480487387	0.005752351743933201	0.49837284201238596	
O 0.23977258716787642	-0.005752394500217443	0.5016271480988214	
O 0.7397725517512092	0.4942476715685831	-0.001627157987614025	
O 0.26022740803755745	0.5057523945002175	0.0016271558899913431	
O 0.5015162839448625	0.23950889022441232	0.4725859721656084	
O 0.4984837160551375	0.760491146239268	0.5274140981656953	
O -0.0015162938336551954	0.2604911007857761	0.9725860051656083	
O 0.0015162689618432442	0.7395089356779042	0.02741395615934592	
O 0.4984837160551375	0.23950889022441232	0.02741395615934592	
O 0.5015162839448625	0.760491146239268	0.9725860051656083	
O 0.0015162689618432442	0.2604911007857761	0.5274140981656953	
O -0.0015162938336551954	0.7395089356779042	0.4725859721656084	
O 0.7225859519343307	0.24771059525870678	0.7477015589430585	
O 0.2774139777343654	0.7522894504944454	0.2522983909569155	
O 0.7774141482657214	0.2522894047412932	0.24770162852100952	
O 0.22258598816560837	0.747710631722387	0.7522983408568894	
O 0.2774139777343654	0.24771059525870678	0.7522983408568894	
O 0.7225859519343307	0.7522894504944454	0.24770162852100952	
O 0.22258598816560837	0.2522894047412932	0.2522983909569155	
O 0.7774141482657214	0.747710631722387	0.7477015589430585	

K_POINTS automatic
6 6 6 0 0 0
