
&CONTROL
    calculation   = 'vc-relax'
    restart_mode  = 'from_scratch'
    prefix        = 'Landau_30'
    pseudo_dir    = '/cluster/scratch/mnoe/QE/pps'
    outdir        = './'
    forc_conv_thr = 1.0d-7
    etot_conv_thr = 1.0d-7

/
&SYSTEM
    ibrav       = 0
    nat         = 32
    ntyp        = 2
    ecutwfc     = 120
    occupations = 'smearing'
    degauss     = 7.35d-4
    tot_charge  = -0.0
/
&ELECTRONS
    conv_thr    = 1.0d-8
    diagonalization = 'david'
/


&IONS
ion_dynamics = 'bfgs'
/

&CELL
cell_dynamics = 'bfgs'
cell_dofree = 'all'
/
CELL_PARAMETERS angstrom
        7.3236460686         0.0000000000         0.0000000000
        0.0000000000         7.7495899200         0.0000000000
        0.0000000000         0.0000000000         7.3236460686

ATOMIC_SPECIES
W 183.84 W_ONCV_LDA-4.0.upf
O 15.9994 O_ONCV_LDA-3.0.upf

ATOMIC_POSITIONS crystal
W 0.263009998	0.26521882861751744	-0.986320043	 0 0 0
W 0.7363199544348296	0.7347811713824826	-0.98698997	 0 0 0
W 0.236990002	0.23478119191780542	-0.48632001	 0 0 0
W 0.7636799014348296	0.7652190002125353	-0.486990002	 0 0 0
W 0.7369898814348296	0.26521882861751744	-0.513679974	 0 0 0
W 0.263679974	0.7347811713824826	-0.513009998	 0 0 0
W 0.7630099094348296	0.23478119191780542	-1.01367999	 0 0 0
W 0.23632001	0.7652190002125353	-1.013009998	 0 0 0
O 0.277719997	0.0037909832660833866	-0.972419973	 0 0 0
O 0.7224198844348296	0.9962089134921304	-0.972280036	 0 0 0
O 0.222280003	0.49620908508714817	-0.47242000500000003	 0 0 0
O 0.7775799064348295	0.5037910865078696	-0.472280003	 0 0 0
O 0.7222799474348296	0.0037909832660833866	-0.527579995	 0 0 0
O 0.277579995	0.9962089134921304	-0.5277199969999999	 0 0 0
O 0.7777199084348296	0.49620908508714817	-1.027579995	 0 0 0
O 0.222420005	0.5037910865078696	-1.0277199970000002	 0 0 0
O 0.494220025	0.283109984	-0.5098500750777225	 0 0 0
O 0.503779994	0.7265700780298474	-0.49014972625661357	 0 0 0
O 0.005779981	0.21689	-1.0098500750777224	 0 0 0
O 0.996220006	0.7734300880298475	-0.9901500479113259	 0 0 0
O 0.505779975	0.283109984	-0.9901500479113259	 0 0 0
O 0.496220006	0.7265700780298474	-1.0098500750777224	 0 0 0
O 0.994219993	0.21689	-0.49014972625661357	 0 0 0
O 0.003780007	0.7734300880298475	-0.5098500750777225	 0 0 0
O 0.740149798821784	0.226570011	-0.2537800955651704	 0 0 0
O 0.2598499865125518	0.7168900680298474	-0.755779975	 0 0 0
O 0.7598503463085569	0.273430005	-0.753779994	 0 0 0
O 0.24014990892227744	0.7831100980298474	-0.2557800695651704	 0 0 0
O 0.2598499865125518	0.226570011	-1.2462200945651707	 0 0 0
O 0.740149798821784	0.7168900680298474	-0.744220025	 0 0 0
O 0.24014990892227744	0.273430005	-0.7462200059999999	 0 0 0
O 0.7598503463085569	0.7831100980298474	-1.2442200815651705	 0 0 0

K_POINTS automatic
6 6 6 0 0 0
