&CONTROL
    calculation   = 'scf'
    restart_mode  = 'from_scratch'
    prefix        = 'Landau_37'
    pseudo_dir    = '/cluster/scratch/mnoe/QE/pps'
    outdir        = './'
/
&SYSTEM
    ibrav       = 0
    nat         = 32
    ntyp        = 2
    ecutwfc     = 120
    occupations = 'smearing'
    degauss     = 7.35d-4
    tot_charge  = -0.20
/
&ELECTRONS
    conv_thr    = 1.0d-8
    diagonalization = 'david'
/

CELL_PARAMETERS angstrom
   7.357104289   0.000000000   0.000000000
   0.000000000   7.498815842   0.000000000
   0.000000000   0.000000000   7.357104289

ATOMIC_SPECIES
W 183.84 W_ONCV_LDA-4.0.upf
O 15.9994 O_ONCV_LDA-3.0.upf

ATOMIC_POSITIONS crystal
W 0.2832700309999999	0.281860003	0.250949975	
W -0.25094998300000004	0.718139997	-0.7167300330000002	
W 0.21672998499999996	0.218140012	0.7509499669999999	
W 0.7509499749999999	0.781859972	0.7832700149999999	
W 0.7167300249999999	0.281860003	0.749050017	
W 0.25094998299999993	0.718139997	0.716729969	
W -0.21673003300000004	0.218140012	-0.7509499830000002	
W 0.24905003299999995	0.781859972	0.216730025	
O 0.286600001	0.00832	0.27654002499999997	
O -0.2765400659999999	0.991680023	-0.7134000160000001	
O 0.21339998300000002	0.491679992	0.7765400330000001	
O 0.776540025	0.508319977	0.786600017	
O 0.7133999750000001	0.00832	0.7234599829999999	
O 0.276540017	0.991680023	0.713399999	
O -0.21340001600000003	0.491679992	-0.776540066	
O 0.22345996699999998	0.508319977	0.21339997500000008	
O 0.48823004699999994	0.289450007	0.6995400039999999	
O 0.49759001299999994	0.7246899969999999	0.800459963	
O -0.988230047	0.21055000900000004	1.199540037	
O 0.002410052000000001	0.775309975	0.300460012	
O 0.5117699529999999	0.289450007	0.300460012	
O 0.502409987	0.7246899969999999	1.199540037	
O -0.011769888000000001	0.21055000900000004	0.800459963	
O -1.002409987	0.775309975	0.6995400039999999	
O 0.6995400369999999	0.22469002700000001	2.002409987	
O 0.300459996	0.7105499799999999	0.488230047	
O 0.800459963	0.27530998900000003	0.5024099870000001	
O 0.19954001999999996	0.789449992	1.988230047	
O 0.300459996	0.22469002700000001	0.997589948	
O 0.699540037	0.7105499799999999	0.511769953	
O 0.19954002	0.27530998900000003	0.49759001300000005	
O 0.800459963	0.789449992	1.011769888	

K_POINTS automatic
6 6 6 0 0 0
