&CONTROL
    calculation   = 'scf'
    restart_mode  = 'from_scratch'
    prefix        = 'Landau_27'
    pseudo_dir    = '/cluster/scratch/mnoe/QE/pps'
    outdir        = './'
/
&SYSTEM
    ibrav       = 0
    nat         = 32
    ntyp        = 2
    ecutwfc     = 120
    occupations = 'smearing'
    degauss     = 7.35d-4
    tot_charge  = -0.15
/
&ELECTRONS
    conv_thr    = 1.0d-8
    diagonalization = 'david'
/

CELL_PARAMETERS angstrom
   7.449408491   0.000000000   0.000000000
   0.000000000   7.583751369   0.000000000
   0.000000000   0.000000000   7.437049247

ATOMIC_SPECIES
W 183.84 W_ONCV_LDA-4.0.upf
O 15.9994 O_ONCV_LDA-3.0.upf

ATOMIC_POSITIONS crystal
W        0.237509991	0.29102919328000004	0.01179	
W        0.762490025	0.70897080672	0.988209993	
W        0.262490009	0.20897080957	0.511789974	
W        0.737509975	0.79102916228	0.488209993	
W       0.762490025	0.29102919328000004	0.488209993	
W       0.237509991	0.70897080672	0.511789974	
W       0.737509975	0.20897080957	0.988209993	
W       0.262490009	0.79102916228	0.01179	
O        0.226970003	0.025670200810000002	0.00367	
O        0.773030013	0.97432984406	0.996330033	
O        0.273029981	0.47432978795	0.503669967	
O        0.726969987	0.52567020616	0.49633	
O        0.773030013	0.025670200810000002	0.49633	
O        0.226970003	0.97432984406	0.503669967	
O        0.726969987	0.47432978795	0.996330033	
O        0.273029981	0.52567020616	0.00367	
O    0.503409975	0.226370014	0.49693313640000003	
O    0.496590025	0.773630017	0.5030668832499999	
O    0.996590025	0.273629986	0.99693313052	
O    0.003409982	0.726369952	0.0030669152400000024	
O   0.496590025	0.226370014	0.0030669152400000024	
O   0.503409975	0.773630017	0.99693313052	
O   0.003409982	0.273629986	0.5030668832499999	
O   0.996590025	0.726369952	0.49693313640000003	
O   0.74693319613	0.244840003	0.744820023	
O   0.25306690248	0.755159967	0.255179993	
O   0.7530668565199999	0.255159997	0.244820007	
O   0.24693315321	0.744840003	0.755179977	
O   0.25306690248	0.244840003	0.755179977	
O   0.74693319613	0.755159967	0.244820007	
O   0.24693315321	0.255159997	0.255179993	
O   0.7530668565199999	0.744840003	0.744820023	

K_POINTS automatic
6 6 6 0 0 0
