&CONTROL
    calculation   = 'scf'
    restart_mode  = 'from_scratch'
    prefix        = 'Landau_21'
    pseudo_dir    = '/cluster/scratch/mnoe/QE/pps'
    outdir        = './'
/
&SYSTEM
    ibrav       = 0
    nat         = 32
    ntyp        = 2
    ecutwfc     = 120
    occupations = 'smearing'
    degauss     = 7.35d-4
    tot_charge  = -1.0
/
&ELECTRONS
    conv_thr    = 1.0d-8
    diagonalization = 'david'
/

CELL_PARAMETERS angstrom
   7.434762176   0.000000000   0.000000000
   0.000000000   7.625020113   0.000000000
   0.000000000   0.000000000   7.432712559

ATOMIC_SPECIES
W 183.84 W_ONCV_LDA-4.0.upf
O 15.9994 O_ONCV_LDA-3.0.upf

ATOMIC_POSITIONS crystal
W        0.240290009	0.28899159544	0.009170001	
W        0.759710007	0.7110084045599999	0.990830031	
W        0.259710007	0.21100841011	0.509170002	
W        0.740289993	0.7889915644400001	0.490829998	
W       0.759710007	0.28899159544	0.490829998	
W       0.240290009	0.7110084045599999	0.509170002	
W       0.740289993	0.21100841011	0.990830031	
W       0.259710007	0.7889915644400001	0.009170001	
O        0.232080001	0.02181460063	0.00285	
O        0.767920032	0.97818543938	0.997149987	
O        0.267920015	0.47818538885000006	0.50284998	
O        0.732079968	0.52181459968	0.49715002	
O        0.767920032	0.02181460063	0.49715002	
O        0.232080001	0.97818543938	0.50284998	
O        0.732079968	0.47818538885000006	0.997149987	
O        0.267920015	0.52181459968	0.00285	
O    0.502650022	0.231620002	0.4864013292	
O    0.497349978	0.768380013	0.51359867875	
O    0.997349946	0.268379982	0.98640133196	
O    0.002650022	0.731620018	0.01359871452	
O   0.497349978	0.231620002	0.01359871452	
O   0.502650022	0.768380013	0.98640133196	
O   0.002650022	0.268379982	0.51359867875	
O   0.997349946	0.731620018	0.4864013292	
O   0.73640138299	0.245989997	0.745970029	
O   0.26359870104	0.75401005	0.254029987	
O   0.7635986579599999	0.254010019	0.245970013	
O   0.23640134583	0.745989981	0.754029971	
O   0.26359870104	0.245989997	0.754029971	
O   0.73640138299	0.75401005	0.245970013	
O   0.23640134583	0.254010019	0.254029987	
O   0.7635986579599999	0.745989981	0.745970029	

K_POINTS automatic
6 6 6 0 0 0
