
&CONTROL
    calculation   = 'vc-relax'
    restart_mode  = 'from_scratch'
    prefix        = 'Landau_1'
    pseudo_dir    = '/cluster/scratch/mnoe/QE/pps'
    outdir        = './'
    forc_conv_thr = 1.0d-7
    etot_conv_thr = 1.0d-7

/
&SYSTEM
    ibrav       = 0
    nat         = 32
    ntyp        = 2
    ecutwfc     = 120
    occupations = 'smearing'
    degauss     = 7.35d-4
    tot_charge  = -0.0
/
&ELECTRONS
    conv_thr    = 1.0d-8
    diagonalization = 'david'
/


&IONS
ion_dynamics = 'bfgs'
/

&CELL
cell_dynamics = 'bfgs'
cell_dofree = 'all'
/
CELL_PARAMETERS angstrom
        7.3236460686         0.0000000000         0.0000000000
        0.0000000000         7.3236460686         0.0000000000
        0.0000000000         0.0000000000         7.7495899200

ATOMIC_SPECIES
W 183.84 W_ONCV_LDA-4.0.upf
O 15.9994 O_ONCV_LDA-3.0.upf

ATOMIC_POSITIONS crystal
W 0.249569998         0.249539995         0.218119991 0 0 0
W 0.750429986         0.750460005         0.218119991 0 0 0
W 0.249539995         0.750429986         0.781880024 0 0 0
W 0.750460005         0.249569998         0.781880024 0 0 0
W 0.250429986         0.749539963         0.281880024 0 0 0
W 0.749569982         0.250460005         0.281880024 0 0 0
W 0.250460005         0.250429986         0.718119976 0 0 0
W 0.749539963         0.749569982         0.718119976 0 0 0
O 0.249080006         0.249080006         0.491670026 0 0 0
O 0.750919994         0.750919994         0.491670026 0 0 0
O 0.249080006         0.750919994         0.508329974 0 0 0
O 0.750919994         0.249080006         0.508329974 0 0 0
O 0.250919994         0.749079974         0.008329987 0 0 0
O 0.749079974         0.250919994         0.008329987 0 0 0
O 0.250919994         0.250919994         0.991670026 0 0 0
O 0.749079974         0.749079974         0.991670026 0 0 0
O 0.199410008         0.499869993         0.250779989 0 0 0
O 0.800589976         0.500130007         0.250779989 0 0 0
O 0.499869993         0.800589976         0.749220042 0 0 0
O 0.500130007         0.199410008         0.749220042 0 0 0
O 0.300589976         0.999870026         0.249220011 0 0 0
O 0.699409992         0.000129998         0.249220011 0 0 0
O 0.000129998         0.300589976         0.750779958 0 0 0
O 0.999870026         0.699409992         0.750779958 0 0 0
O 0.999809988         0.199410008         0.248899992 0 0 0
O 0.000190020         0.800589976         0.248899992 0 0 0
O 0.199410008         0.000190020         0.751099977 0 0 0
O 0.800589976         0.999809988         0.751099977 0 0 0
O 0.500190012         0.699409992         0.251100008 0 0 0
O 0.499809988         0.300589976         0.251100008 0 0 0
O 0.300589976         0.500190012         0.748900023 0 0 0
O 0.699409992         0.499809988         0.748900023 0 0 0

K_POINTS automatic
6 6 6 0 0 0
