&CONTROL
    calculation   = 'scf'
    restart_mode  = 'from_scratch'
    prefix        = 'Landau_6'
    pseudo_dir    = '/cluster/scratch/mnoe/QE/pps'
    outdir        = './'
/
&SYSTEM
    ibrav       = 0
    nat         = 32
    ntyp        = 2
    ecutwfc     = 120
    occupations = 'smearing'
    degauss     = 7.35d-4
    tot_charge  = -0.2
/
&ELECTRONS
    conv_thr    = 1.0d-8
    diagonalization = 'david'
/

CELL_PARAMETERS angstrom
   7.371707333   0.000000000   0.000000000
   0.000000000   7.700130684   0.000000000
   0.000000000   0.000000000   7.376523121

ATOMIC_SPECIES
W 183.84 W_ONCV_LDA-4.0.upf
O 15.9994 O_ONCV_LDA-3.0.upf

ATOMIC_POSITIONS crystal
W 0.244450008	0.27888857781944976	0.00524	
W 0.7555499922049282	0.7211114221805502	0.99475999	
W 0.255549992	0.2211114381677422	0.50524001	
W 0.7444499762049281	0.7788885774224014	0.494760022	
W 0.7555499922049282	0.27888857781944976	0.494760022	
W 0.244450008	0.7211114221805502	0.50524001	
W 0.7444499762049281	0.2211114381677422	0.99475999	
W 0.255549992	0.7788885774224014	0.00524	
O 0.239759998	0.007510495658927809	0.00163	
O 0.7602400022049282	0.9924895066100404	0.998369989	
O 0.260240018	0.4924895062129921	0.501630011	
O 0.7397599662049282	0.5075104933899596	0.498369989	
O 0.7602400022049282	0.007510495658927809	0.498369989	
O 0.239759998	0.9924895066100404	0.501630011	
O 0.7397599662049282	0.4924895062129921	0.998369989	
O 0.260240018	0.5075104933899596	0.00163	
O 0.501519972	0.239500008	0.4568057232160927	
O 0.498480028	0.7605000068078798	0.5431942763612428	
O 0.998480028	0.260500023	0.9568057562160928	
O 0.001519918	0.7394999918078798	0.043194265142531586	
O 0.498480028	0.239500008	0.043194265142531586	
O 0.501519972	0.7605000068078798	0.9568057562160928	
O 0.001519918	0.260500023	0.5431942763612428	
O 0.998480028	0.7394999918078798	0.4568057232160927	
O 0.706805739433829	0.247710011	0.7476999712049281	
O 0.29319426098883544	0.7522900498078798	0.252300029	
O 0.7931942921563147	0.252290004	0.247699971	
O 0.20680573921609274	0.7477100108078798	0.7522999972049282	
O 0.29319426098883544	0.247710011	0.7522999972049282	
O 0.706805739433829	0.7522900498078798	0.247699971	
O 0.20680573921609274	0.252290004	0.252300029	
O 0.7931942921563147	0.7477100108078798	0.7476999712049281	

K_POINTS automatic
6 6 6 0 0 0
