&CONTROL
    calculation   = 'scf'
    restart_mode  = 'from_scratch'
    prefix        = 'Landau_14'
    pseudo_dir    = '/cluster/scratch/mnoe/QE/pps'
    outdir        = './'
/
&SYSTEM
    ibrav       = 0
    nat         = 32
    ntyp        = 2
    ecutwfc     = 120
    occupations = 'smearing'
    degauss     = 7.35d-4
    tot_charge  = -0.2
/
&ELECTRONS
    conv_thr    = 1.0d-8
    diagonalization = 'david'
/

CELL_PARAMETERS angstrom
   7.363599674   0.000000000   0.000000000
   0.000000000   7.644190497   0.000000000
   0.000000000   0.000000000   7.390766650

ATOMIC_SPECIES
W 183.84 W_ONCV_LDA-4.0.upf
O 15.9994 O_ONCV_LDA-3.0.upf

ATOMIC_POSITIONS crystal
W 0.237049992	0.27907628628233366	0.01223	
W 0.7629499602027217	0.7209237137176664	0.987770032	
W 0.262950008	0.2209237296424962	0.512229968	
W 0.7370500102027218	0.7790762839520604	0.48777	
W 0.7629499602027217	0.27907628628233366	0.48777	
W 0.237049992	0.7209237137176664	0.512229968	
W 0.7370500102027218	0.2209237296424962	0.987770032	
W 0.262950008	0.7790762839520604	0.01223	
O 0.226109989	0.0075616330109820095	0.0038	
O 0.7738899962027217	0.9924383705675902	0.996200004	
O 0.273890011	0.49243836823731696	0.503799963	
O 0.7261099742027217	0.5075616294324098	0.496200004	
O 0.7738899962027217	0.0075616330109820095	0.496200004	
O 0.226109989	0.9924383705675902	0.503799963	
O 0.7261099742027217	0.49243836823731696	0.996200004	
O 0.273890011	0.5075616294324098	0.0038	
O 0.503539971	0.225490008	0.45634673909132795	
O 0.496460029	0.7745100668724484	0.5436532584280586	
O 0.996459996	0.274509992	0.9563467720913279	
O 0.003540039	0.7254899918724484	0.04365325101343494	
O 0.496460029	0.225490008	0.04365325101343494	
O 0.503539971	0.7745100668724484	0.9563467720913279	
O 0.003540039	0.274509992	0.5436532584280586	
O 0.996459996	0.7254899918724484	0.45634673909132795	
O 0.7063467563692197	0.244650006	0.7446299462027217	
O 0.29365324611139365	0.7553499928724484	0.255370022	
O 0.793653273225337	0.255349994	0.244629978	
O 0.20634675509132797	0.7446500048724484	0.7553700242027217	
O 0.29365324611139365	0.244650006	0.7553700242027217	
O 0.7063467563692197	0.7553499928724484	0.244629978	
O 0.20634675509132797	0.255349994	0.255370022	
O 0.793653273225337	0.7446500048724484	0.7446299462027217	

K_POINTS automatic
6 6 6 0 0 0
