&CONTROL
    calculation   = 'scf'
    restart_mode  = 'from_scratch'
    prefix        = 'Landau_7'
    pseudo_dir    = '/cluster/scratch/mnoe/QE/pps'
    outdir        = './'
/
&SYSTEM
    ibrav       = 0
    nat         = 32
    ntyp        = 2
    ecutwfc     = 120
    occupations = 'smearing'
    degauss     = 7.35d-4
    tot_charge  = -0.6
/
&ELECTRONS
    conv_thr    = 1.0d-8
    diagonalization = 'david'
/

CELL_PARAMETERS angstrom
   7.410563988   0.000000000   0.000000000
   0.000000000   7.678703782   0.000000000
   0.000000000   0.000000000   7.408800844

ATOMIC_SPECIES
W 183.84 W_ONCV_LDA-4.0.upf
O 15.9994 O_ONCV_LDA-3.0.upf

ATOMIC_POSITIONS crystal
W 0.24471976569441867	0.276434982198593	-0.0023531546139575975	
W 0.7479528227174665	0.7235650178014069	-0.0054062292672792545	
W 0.25528023430558133	0.22356503460375315	0.49764684269472137	
W 0.7520471244308595	0.7764350070713273	0.494593764284036	
W 0.7552802018854385	0.276434982198593	0.5023531573052786	
W 0.2520471538800636	0.7235650178014069	0.505406235715964	
W 0.7447197452628875	0.22356503460375315	0.00235315662371029	
W 0.2479528461199364	0.7764350070713273	0.005406231277031947	
O 0.24587895580070096	0.006842063446897017	-0.006683031831521611	
O 0.7518435214357281	-0.006842078296168553	-0.007631985238350951	
O 0.2541210358806705	0.49315794657656564	0.49331695897604433	
O 0.7481564194211983	0.5068420782961686	0.49236800784110935	
O 0.7541210096121185	0.006842063446897017	0.5066830414958107	
O 0.24815643852454494	-0.006842078296168553	0.5076319926307457	
O 0.7458789312448078	0.49315794657656564	0.006683031219857751	
O 0.2518435531568265	0.5068420782961686	0.007631984626687091	
O 0.5020506445583566	0.24533859757762694	0.46280524727197964	
O 0.5011663519736126	0.7514570001483802	0.537194779205447	
O -0.0020506338105486287	0.2546613998009565	0.9628052802719796	
O -0.0011663427112740552	0.7485430419573538	0.037194718262324955	
O 0.4979493554416435	0.24533859757762694	0.037194718262324955	
O 0.4988336480263874	0.7514570001483802	0.9628052802719796	
O 0.002050640189328931	0.2546613998009565	0.537194779205447	
O 0.0011663490900543573	0.7485430419573538	0.46280524727197964	
O 0.7128052496320932	0.2566744697607493	0.7503909215738653	
O 0.28719472389048006	0.7580096697382129	0.25173135871251967	
O 0.7871948080429872	0.24332552394785092	0.25039094917060173	
O 0.21280526327197963	0.7419903722451883	0.7517313367955192	
O 0.28719472389048006	0.2566744697607493	0.7496090381572602	
O 0.7128052496320932	0.7580096697382129	0.24826864696721626	
O 0.21280526327197963	0.24332552394785092	0.24960905650913415	
O 0.7871948080429872	0.7419903722451883	0.7482686229356064	

K_POINTS automatic
6 6 6 0 0 0
