
&CONTROL
    calculation   = 'vc-relax'
    restart_mode  = 'from_scratch'
    prefix        = 'Landau_4'
    pseudo_dir    = '/cluster/scratch/mnoe/QE/pps'
    outdir        = './'
    forc_conv_thr = 1.0d-7
    etot_conv_thr = 1.0d-7

/
&SYSTEM
    ibrav       = 0
    nat         = 32
    ntyp        = 2
    ecutwfc     = 120
    occupations = 'smearing'
    degauss     = 7.35d-4
    tot_charge  = -0.0
/
&ELECTRONS
    conv_thr    = 1.0d-8
    diagonalization = 'david'
/


&IONS
ion_dynamics = 'bfgs'
/

&CELL
cell_dynamics = 'bfgs'
cell_dofree = 'all'
/
CELL_PARAMETERS angstrom
        7.3236460686         0.0000000000         0.0000000000
        0.0000000000         7.3236460686         0.0000000000
        0.0000000000         0.0000000000         7.7495899200

ATOMIC_SPECIES
W 183.84 W_ONCV_LDA-4.0.upf
O 15.9994 O_ONCV_LDA-3.0.upf

ATOMIC_POSITIONS crystal
W 0.248270012         0.248180004         0.218119991 0 0 0
W 0.751729988         0.751819980         0.218119991 0 0 0
W 0.248180004         0.751729988         0.781880024 0 0 0
W 0.751819980         0.248270012         0.781880024 0 0 0
W 0.251729988         0.748180053         0.281880024 0 0 0
W 0.748270045         0.251819996         0.281880024 0 0 0
W 0.251819996         0.251729988         0.718119976 0 0 0
W 0.748180053         0.748270045         0.718119976 0 0 0
O 0.246300002         0.246319993         0.491670026 0 0 0
O 0.753700047         0.753679991         0.491670026 0 0 0
O 0.246319993         0.753700047         0.508329974 0 0 0
O 0.753679991         0.246300002         0.508329974 0 0 0
O 0.253700014         0.746319977         0.008329987 0 0 0
O 0.746299986         0.253679991         0.008329987 0 0 0
O 0.253679991         0.253700014         0.991670026 0 0 0
O 0.746319977         0.746299986         0.991670026 0 0 0
O 0.199410008         0.499499997         0.253120002 0 0 0
O 0.800589976         0.500499971         0.253120002 0 0 0
O 0.499499997         0.800589976         0.746879982 0 0 0
O 0.500499971         0.199410008         0.746879982 0 0 0
O 0.300589976         0.999500029         0.246879998 0 0 0
O 0.699409992         0.000499994         0.246879998 0 0 0
O 0.000499994         0.300589976         0.753120018 0 0 0
O 0.999500029         0.699409992         0.753120018 0 0 0
O 0.999230053         0.199410008         0.245589999 0 0 0
O 0.000769973         0.800589976         0.245589999 0 0 0
O 0.199410008         0.000769973         0.754410001 0 0 0
O 0.800589976         0.999230053         0.754410001 0 0 0
O 0.500769980         0.699409992         0.254410001 0 0 0
O 0.499230020         0.300589976         0.254410001 0 0 0
O 0.300589976         0.500769980         0.745589999 0 0 0
O 0.699409992         0.499230020         0.745589999 0 0 0

K_POINTS automatic
6 6 6 0 0 0
