&CONTROL
    calculation   = 'scf'
    restart_mode  = 'from_scratch'
    prefix        = 'Landau_20'
    pseudo_dir    = '/cluster/scratch/mnoe/QE/pps'
    outdir        = './'
/
&SYSTEM
    ibrav       = 0
    nat         = 32
    ntyp        = 2
    ecutwfc     = 120
    occupations = 'smearing'
    degauss     = 7.35d-4
    tot_charge  = -0.2
/
&ELECTRONS
    conv_thr    = 1.0d-8
    diagonalization = 'david'
/

CELL_PARAMETERS angstrom
   7.512522096  -0.000000220  -0.000000025
  -0.000000229   7.596601646   0.000000121
  -0.000000025   0.000000119   7.512522583

ATOMIC_SPECIES
W 183.84 W_ONCV_LDA-4.0.upf
O 15.9994 O_ONCV_LDA-3.0.upf

ATOMIC_POSITIONS crystal
W 0.25	0.2659407145363484	0.0	
W 0.7499999153785509	0.7340592854636516	0.0	
W 0.25	0.23405930575249193	0.5	
W 0.7499999153785509	0.765940847490406	0.5	
W 0.7499999153785509	0.2659407145363484	0.5	
W 0.25	0.7340592854636516	0.5	
W 0.7499999153785509	0.23405930575249193	0.0	
W 0.25	0.765940847490406	0.0	
O 0.25	0.003983113713090374	0.0	
O 0.7499999153785509	0.9960167982212577	0.0	
O 0.25	0.49601693117531537	0.5	
O 0.7499999153785509	0.5039832017787423	0.5	
O 0.7499999153785509	0.003983113713090374	0.5	
O 0.25	0.9960167982212577	0.5	
O 0.7499999153785509	0.49601693117531537	0.0	
O 0.25	0.5039832017787423	0.0	
O 0.5	0.25	0.4884657965301208	
O 0.5	0.7500000643326086	0.5115343450016177	
O 0.0	0.25	0.9884658295301209	
O 0.0	0.7500000643326086	0.011534071382343233	
O 0.5	0.25	0.011534071382343233	
O 0.5	0.7500000643326086	0.9884658295301209	
O 0.0	0.25	0.5115343450016177	
O 0.0	0.7500000643326086	0.4884657965301208	
O 0.7384657396198314	0.25	0.7499999153785509	
O 0.26153411884842986	0.7500000643326086	0.25	
O 0.7615344296230667	0.25	0.25	
O 0.23846581253012084	0.7500000643326086	0.7499999153785509	
O 0.26153411884842986	0.25	0.7499999153785509	
O 0.7384657396198314	0.7500000643326086	0.25	
O 0.23846581253012084	0.25	0.25	
O 0.7615344296230667	0.7500000643326086	0.7499999153785509	

K_POINTS automatic
6 6 6 0 0 0
