
&CONTROL
    calculation   = 'vc-relax'
    restart_mode  = 'from_scratch'
    prefix        = 'Landau_31'
    pseudo_dir    = '/cluster/scratch/mnoe/QE/pps'
    outdir        = './'
    forc_conv_thr = 1.0d-7
    etot_conv_thr = 1.0d-7

/
&SYSTEM
    ibrav       = 0
    nat         = 32
    ntyp        = 2
    ecutwfc     = 120
    occupations = 'smearing'
    degauss     = 7.35d-4
    tot_charge  = -0.0
/
&ELECTRONS
    conv_thr    = 1.0d-8
    diagonalization = 'david'
/


&IONS
ion_dynamics = 'bfgs'
/

&CELL
cell_dynamics = 'bfgs'
cell_dofree = 'all'
/
CELL_PARAMETERS angstrom
        7.3236460686         0.0000000000         0.0000000000
        0.0000000000         7.7495899200         0.0000000000
        0.0000000000         0.0000000000         7.3236460686

ATOMIC_SPECIES
W 183.84 W_ONCV_LDA-4.0.upf
O 15.9994 O_ONCV_LDA-3.0.upf

ATOMIC_POSITIONS crystal
W 0.23566	0.2873418088381846	0.01354	 0 0 0
W 0.764339984	0.7126581911618154	0.986459981	 0 0 0
W 0.264339984	0.2126581988979307	0.513540019	 0 0 0
W 0.735660016	0.7873417778381846	0.486460013	 0 0 0
W 0.764339984	0.2873418088381846	0.486460013	 0 0 0
W 0.23566	0.7126581911618154	0.513540019	 0 0 0
W 0.735660016	0.2126581988979307	0.986459981	 0 0 0
W 0.264339984	0.7873417778381846	0.01354	 0 0 0
O 0.22355	0.018692827827707946	0.00421	 0 0 0
O 0.776449951	0.9813072082472845	0.995789995	 0 0 0
O 0.276449983	0.48130716223525616	0.504210005	 0 0 0
O 0.723550049	0.5186928217767722	0.495789995	 0 0 0
O 0.776449951	0.018692827827707946	0.495789995	 0 0 0
O 0.22355	0.9813072082472845	0.504210005	 0 0 0
O 0.723550049	0.48130716223525616	0.995789995	 0 0 0
O 0.276449983	0.5186928217767722	0.00421	 0 0 0
O 0.503920029	0.222870006	0.47787401626789416	 0 0 0
O 0.496079971	0.777129979	0.5221259822089395	 0 0 0
O 0.996080003	0.277130009	0.9778740260234631	 0 0 0
O 0.003920078	0.722869991	0.022126021039500954	 0 0 0
O 0.496079971	0.222870006	0.022126021039500954	 0 0 0
O 0.503920029	0.777129979	0.9778740260234631	 0 0 0
O 0.003920078	0.277130009	0.5221259822089395	 0 0 0
O 0.996080003	0.722869991	0.47787401626789416	 0 0 0
O 0.7278740652484404	0.244080001	0.744059972	 0 0 0
O 0.2721260069765369	0.755920015	0.255940012	 0 0 0
O 0.7721259662283931	0.255919999	0.244060037	 0 0 0
O 0.22787403275215312	0.744080016	0.755940028	 0 0 0
O 0.2721260069765369	0.244080001	0.755940028	 0 0 0
O 0.7278740652484404	0.755920015	0.244060037	 0 0 0
O 0.22787403275215312	0.255919999	0.255940012	 0 0 0
O 0.7721259662283931	0.744080016	0.744059972	 0 0 0

K_POINTS automatic
6 6 6 0 0 0
