&CONTROL
    calculation   = 'scf'
    restart_mode  = 'from_scratch'
    prefix        = 'chempot_3'
    pseudo_dir    = '/cluster/scratch/mnoe/QE/pps'
    outdir        = './'
/
&SYSTEM
    ibrav       = 0
    nat         = 32 
    ntyp        = 2
    ecutwfc     = 120
    occupations = 'smearing'
    degauss     = 7.35d-4
    tot_charge  = -.30
/
&ELECTRONS
    conv_thr    = 1.0d-8
    diagonalization = 'david'
/
CELL_PARAMETERS angstrom
   7.314202126   0.000000000   0.000000000
   0.000000000   7.642169026   0.000000000
   0.000000000   0.000000000   7.358778823


ATOMIC_SPECIES
W 183.84 W_ONCV_LDA-4.0.upf
O 15.9994 O_ONCV_LDA-3.0.upf

ATOMIC_POSITIONS crystal
W 0.234280002         0.281860003         0.014850000
W 0.765720031         0.718139997         0.985149994
W 0.265720015         0.218140012         0.514850006
W 0.734279969         0.781859972         0.485149994
W 0.765720031         0.281860003         0.485149994
W 0.234280002         0.718139997         0.514850006
W 0.734279969         0.218140012         0.985149994
W 0.265720015         0.781859972         0.014850000
O 0.220989996         0.008320000         0.004620000
O 0.779010020         0.991680023         0.995379985
O 0.279009988         0.491679992         0.504620015
O 0.720989980         0.508319977         0.495380018
O 0.779010020         0.008320000         0.495380018
O 0.220989996         0.991680023         0.504620015
O 0.720989980         0.491679992         0.995379985
O 0.279009988         0.508319977         0.004620000
O 0.504299990         0.220240005         0.449540004
O 0.495700010         0.779759995         0.550459963
O 0.995700010         0.279759995         0.949540037
O 0.004299998         0.720239974         0.050460012
O 0.495700010         0.220240005         0.050460012
O 0.504299990         0.779759995         0.949540037
O 0.004299998         0.279759995         0.550459963
O 0.995700010         0.720239974         0.449540004
O 0.699540037         0.243499997         0.743480020
O 0.300459996         0.756500019         0.256519980
O 0.800459963         0.256500003         0.243479971
O 0.199540020         0.743500012         0.756519980
O 0.300459996         0.243499997         0.756519980
O 0.699540037         0.756500019         0.243479971
O 0.199540020         0.256500003         0.256519980
O 0.800459963         0.743500012         0.743480020

K_POINTS automatic
6 6 6 0 0 0
