&CONTROL
    calculation   = 'scf'
    restart_mode  = 'from_scratch'
    prefix        = 'Landau_1'
    pseudo_dir    = '/cluster/scratch/mnoe/QE/pps'
    outdir        = './'
/
&SYSTEM
    ibrav       = 0
    nat         = 32
    ntyp        = 2
    ecutwfc     = 120
    occupations = 'smearing'
    degauss     = 7.35d-4
    tot_charge  = -1.0
/
&ELECTRONS
    conv_thr    = 1.0d-8
    diagonalization = 'david'
/

CELL_PARAMETERS angstrom
   7.337064752   0.000000000   0.000000000
   0.000000000   7.739373112   0.000000000
   0.000000000   0.000000000   7.337099562

ATOMIC_SPECIES
W 183.84 W_ONCV_LDA-4.0.upf
O 15.9994 O_ONCV_LDA-3.0.upf

ATOMIC_POSITIONS crystal
W 0.2495380235732836	0.2810745867174915	0.00043625560198441764	
W 0.7504619718271953	0.7189254132825085	-0.0004362550276353479	
W 0.2504619764267164	0.2189254285434461	0.5004362558517014	
W 0.7495380198228003	0.7810745638065583	0.49956374414829857	
W 0.7504619718271953	0.2810745867174915	0.49956374414829857	
W 0.2495380235732836	0.7189254132825085	0.5004362558517014	
W 0.7495380198228003	0.2189254285434461	-0.0004362550276353479	
W 0.2504619764267164	0.7810745638065583	0.00043625560198441764	
O 0.24914771559732304	0.008106029311994433	0.00013559632416594526	
O 0.7508522790040616	-0.008106011791684768	-0.00013559649896783543	
O 0.2508522840031298	0.49189396529738194	0.5001355956749017	
O 0.749147712645934	0.5081060117916848	0.4998644035010322	
O 0.7508522790040616	0.008106029311994433	0.4998644035010322	
O 0.24914771559732304	-0.008106011791684768	0.5001355956749017	
O 0.749147712645934	0.49189396529738194	-0.00013559649896783543	
O 0.2508522840031298	0.5081060117916848	0.00013559632416594526	
O 0.5001263569954052	0.24912574085203437	0.451460501347134	
O 0.4998736430045948	0.7508742484366057	0.5485394742638079	
O -0.00012635781947126627	0.25087425839881466	0.9514605343471341	
O 0.00012635574682027037	0.7491257308898254	0.04853950734661216	
O 0.4998736430045948	0.24912574085203437	0.04853950734661216	
O 0.5001263569954052	0.7508742484366057	0.9514605343471341	
O 0.00012635574682027037	0.25087425839881466	0.5485394742638079	
O -0.00012635781947126627	0.7491257308898254	0.451460501347134	
O 0.7014605299111942	0.2498092162715589	0.7498084632452549	
O 0.29853949447786376	0.7501907737912038	0.25019153257974297	
O 0.7985394784388101	0.2501907837284411	0.24980846904341747	
O 0.20146051734713405	0.7498092055601989	0.7501915284047408	
O 0.29853949447786376	0.2498092162715589	0.7501915284047408	
O 0.7014605299111942	0.7501907737912038	0.24980846904341747	
O 0.20146051734713405	0.2501907837284411	0.25019153257974297	
O 0.7985394784388101	0.7498092055601989	0.7498084632452549	

K_POINTS automatic
6 6 6 0 0 0
