&CONTROL
    calculation   = 'scf'
    restart_mode  = 'from_scratch'
    prefix        = 'Landau_14'
    pseudo_dir    = '/cluster/scratch/mnoe/QE/pps'
    outdir        = './'
/
&SYSTEM
    ibrav       = 0
    nat         = 32
    ntyp        = 2
    ecutwfc     = 120
    occupations = 'smearing'
    degauss     = 7.35d-4
    tot_charge  = -0.2
/
&ELECTRONS
    conv_thr    = 1.0d-8
    diagonalization = 'david'
/

CELL_PARAMETERS angstrom
   7.370000047   0.000000000   0.000000000
   0.000000000   7.570937186   0.000000000
   0.000000000   0.000000000   7.370000047

ATOMIC_SPECIES
W 183.84 W_ONCV_LDA-4.0.upf
O 15.9994 O_ONCV_LDA-3.0.upf

ATOMIC_POSITIONS crystal
W 0.262139998	0.2788749286592077	-0.987229992	
W 0.7372299760259492	0.7211250713407923	-0.987859937	
W 0.237860002	0.22112508733917044	-0.487230008	
W 0.7627699600259492	0.778874959608931	-0.487860002	
W 0.7378599210259492	0.2788749286592077	-0.512769992	
W 0.262769992	0.7211250713407923	-0.512139998	
W 0.7621400150259493	0.22112508733917044	-1.012769976	
W 0.237230008	0.778874959608931	-1.012140031	
O 0.275869982	0.0075113099087408194	-0.974259992	
O 0.7242599760259493	0.9924886821253175	-0.974130018	
O 0.224130002	0.4924887130750409	-0.474260009	
O 0.7757400240259492	0.5075113178746825	-0.474130002	
O 0.7241300020259492	0.0075113099087408194	-0.525740008	
O 0.275740008	0.9924886821253175	-0.525869982	
O 0.7758699330259492	0.4924887130750409	-1.02574004	
O 0.224260009	0.5075113178746825	-1.025869949	
O 0.494610078	0.2809	-0.543241926617265	
O 0.503530042	0.7281299879756726	-0.4567580244362552	
O 0.005389988	0.2191	-1.043241926617265	
O 0.996469991	0.7718700419756725	-0.9567580693373238	
O 0.505389987	0.2809	-0.9567580693373238	
O 0.496469991	0.7281299879756726	-1.043241926617265	
O 0.99460998	0.2191	-0.4567580244362552	
O 0.003529996	0.7718700419756725	-0.543241926617265	
O 0.706758024410306	0.228130019	-0.25353001197405073	
O 0.29324191064321425	0.7190999839756725	-0.755389987	
O 0.7932419755377956	0.271869996	-0.753530042	
O 0.2067580573827349	0.7809000459756726	-0.25539000397405076	
O 0.29324191064321425	0.228130019	-1.2464700069740509	
O 0.706758024410306	0.7190999839756725	-0.744610078	
O 0.2067580573827349	0.271869996	-0.746469991	
O 0.7932419755377956	0.7809000459756726	-1.2446099959740506	

K_POINTS automatic
6 6 6 0 0 0
