
&CONTROL
    calculation   = 'vc-relax'
    restart_mode  = 'from_scratch'
    prefix        = 'Landau_1'
    pseudo_dir    = '/cluster/scratch/mnoe/QE/pps'
    outdir        = './'
    forc_conv_thr = 1.0d-7
    etot_conv_thr = 1.0d-7

/
&SYSTEM
    ibrav       = 0
    nat         = 32
    ntyp        = 2
    ecutwfc     = 120
    occupations = 'smearing'
    degauss     = 7.35d-4
    tot_charge  = -0.0
/
&ELECTRONS
    conv_thr    = 1.0d-8
    diagonalization = 'david'
/


&IONS
ion_dynamics = 'bfgs'
/

&CELL
cell_dynamics = 'bfgs'
cell_dofree = 'all'
/
CELL_PARAMETERS angstrom
        7.3236460686         0.0000000000         0.0000000000
        0.0000000000         7.7495899200         0.0000000000
        0.0000000000         0.0000000000         7.3236460686

ATOMIC_SPECIES
W 183.84 W_ONCV_LDA-4.0.upf
O 15.9994 O_ONCV_LDA-3.0.upf

ATOMIC_POSITIONS crystal
W 0.25	0.28172060638589586	0.0	 0 0 0
W 0.7499999992590156	0.7182793936141041	0.0	 0 0 0
W 0.25	0.21827940866041567	0.5	 0 0 0
W 0.7499999992590156	0.781720576821553	0.5	 0 0 0
W 0.7499999992590156	0.28172060638589586	0.5	 0 0 0
W 0.25	0.7182793936141041	0.5	 0 0 0
W 0.7499999992590156	0.21827940866041567	0.0	 0 0 0
W 0.25	0.781720576821553	0.0	 0 0 0
O 0.25	0.00828202422831081	0.0	 0 0 0
O 0.7499999992590156	0.9917179977991473	0.0	 0 0 0
O 0.25	0.4917179682348044	0.5	 0 0 0
O 0.7499999992590156	0.5082820022008527	0.5	 0 0 0
O 0.7499999992590156	0.00828202422831081	0.5	 0 0 0
O 0.25	0.9917179977991473	0.5	 0 0 0
O 0.7499999992590156	0.4917179682348044	0.0	 0 0 0
O 0.25	0.5082820022008527	0.0	 0 0 0
O 0.5	0.25	0.44988085614878853	 0 0 0
O 0.5	0.7499999856946729	0.5501191123794916	 0 0 0
O 0.0	0.25	0.9498808891487885	 0 0 0
O 0.0	0.7499999856946729	0.05011915855448888	 0 0 0
O 0.5	0.25	0.05011915855448888	 0 0 0
O 0.5	0.7499999856946729	0.9498808891487885	 0 0 0
O 0.0	0.25	0.5501191123794916	 0 0 0
O 0.0	0.7499999856946729	0.44988085614878853	 0 0 0
O 0.6998808883614926	0.25	0.7499999992590156	 0 0 0
O 0.30011914311022714	0.7499999856946729	0.25	 0 0 0
O 0.800119113120476	0.25	0.25	 0 0 0
O 0.19988087214878852	0.7499999856946729	0.7499999992590156	 0 0 0
O 0.30011914311022714	0.25	0.7499999992590156	 0 0 0
O 0.6998808883614926	0.7499999856946729	0.25	 0 0 0
O 0.19988087214878852	0.25	0.25	 0 0 0
O 0.800119113120476	0.7499999856946729	0.7499999992590156	 0 0 0

K_POINTS automatic
6 6 6 0 0 0
