&CONTROL
    calculation   = 'scf'
    restart_mode  = 'from_scratch'
    prefix        = 'Landau_3'
    pseudo_dir    = '/cluster/scratch/mnoe/QE/pps'
    outdir        = './'
/
&SYSTEM
    ibrav       = 0
    nat         = 32
    ntyp        = 2
    ecutwfc     = 120
    occupations = 'smearing'
    degauss     = 7.35d-4
    tot_charge  = -0.2
/
&ELECTRONS
    conv_thr    = 1.0d-8
    diagonalization = 'david'
/

CELL_PARAMETERS angstrom
   7.329486462   0.000000000   0.000000000
   0.000000000   7.738836261   0.000000000
   0.000000000   0.000000000   7.329486462

ATOMIC_SPECIES
W 183.84 W_ONCV_LDA-4.0.upf
O 15.9994 O_ONCV_LDA-3.0.upf

ATOMIC_POSITIONS crystal
W 0.24460449835	0.28156052377147955	-0.00015449729999999964	
W 0.7501544991580716	0.7184394762285204	-0.005395494150000007	
W 0.25539550165	0.218439491328016	0.49984550165	
W 0.7498455011080717	0.7815604958558406	0.49460449835	
W 0.7553954960080717	0.28156052377147955	0.50015449835	
W 0.24984550165	0.7184394762285204	0.50539550165	
W 0.7446045042580717	0.218439491328016	0.00015450074999999192	
W 0.25015449835	0.7815604958558406	0.005395497599999999	
O 0.244065997	0.008238412976663476	-0.0043049946000000006	
O 0.7543049919580717	-0.008238392066069388	-0.005933995649999994	
O 0.25593399565	0.49176158001829173	0.49569499655	
O 0.7456950038080716	0.5082383920660694	0.4940659994	
O 0.7559339930080716	0.008238412976663476	0.5043050009	
O 0.24569499415	-0.008238392066069388	0.50593399805	
O 0.7440660027580717	0.49176158001829173	0.004304993550000007	
O 0.2543049985	0.5082383920660694	0.005933994600000001	
O 0.5019094991	0.24360250045	0.4502722896384622	
O 0.5003914967	0.7541054911424327	0.54972768064489	
O -0.0019094943000000013	0.25639749505	0.9502723226384622	
O -0.00039149444999999944	0.7458944999924328	0.04972772357566321	
O 0.4980905009	0.24360250045	0.04972772357566321	
O 0.4996085033	0.7541054911424327	0.9502723226384622	
O 0.0019094916000000025	0.25639749505	0.54972768064489	
O 0.00039149175000000047	0.7458944999924328	0.4502722896384622	
O 0.7002723209470384	0.25410549565	0.7496085066580717	
O 0.29972770876960947	0.7563974951924328	0.2519094991	
O 0.7997276822368183	0.24589449985	0.24960851305	
O 0.2002723056384622	0.7436024959424328	0.7519095024580716	
O 0.29972770876960947	0.25410549565	0.7503915026080716	
O 0.7002723209470384	0.7563974951924328	0.24809051065	
O 0.2002723056384622	0.24589449985	0.2503914967	
O 0.7997276822368183	0.7436024959424328	0.7480905068080717	

K_POINTS automatic
6 6 6 0 0 0
