
&CONTROL
    calculation   = 'vc-relax'
    restart_mode  = 'from_scratch'
    prefix        = 'Landau_18'
    pseudo_dir    = '/cluster/scratch/mnoe/QE/pps'
    outdir        = './'
    forc_conv_thr = 1.0d-7
    etot_conv_thr = 1.0d-7

/
&SYSTEM
    ibrav       = 0
    nat         = 32
    ntyp        = 2
    ecutwfc     = 120
    occupations = 'smearing'
    degauss     = 7.35d-4
    tot_charge  = -0.0
/
&ELECTRONS
    conv_thr    = 1.0d-8
    diagonalization = 'david'
/


&IONS
ion_dynamics = 'bfgs'
/

&CELL
cell_dynamics = 'bfgs'
cell_dofree = 'all'
/
CELL_PARAMETERS angstrom
        7.3236460686         0.0000000000         0.0000000000
        0.0000000000         7.7495899200         0.0000000000
        0.0000000000         0.0000000000         7.3236460686

ATOMIC_SPECIES
W 183.84 W_ONCV_LDA-4.0.upf
O 15.9994 O_ONCV_LDA-3.0.upf

ATOMIC_POSITIONS crystal
W       0.241680002	0.28797279652	0.00786	 0 0 0
W       0.758319998	0.7120272034799999	0.992140017	 0 0 0
W       0.258319998	0.21202721038	0.507860015	 0 0 0
W       0.741680002	0.7879727655200001	0.492139985	 0 0 0
W      0.758319998	0.28797279652	0.492139985	 0 0 0
W      0.241680002	0.7120272034799999	0.507860015	 0 0 0
W      0.741680002	0.21202721038	0.992140017	 0 0 0
W      0.258319998	0.7879727655200001	0.00786	 0 0 0
O       0.234640005	0.01988680054	0.00245	 0 0 0
O       0.765360027	0.98011323704	0.997550035	 0 0 0
O       0.265359995	0.4801131893	0.502449998	 0 0 0
O       0.734639973	0.51988679644	0.497550002	 0 0 0
O       0.765360027	0.01988680054	0.497550002	 0 0 0
O       0.234640005	0.98011323704	0.502449998	 0 0 0
O       0.734639973	0.4801131893	0.997550035	 0 0 0
O       0.265359995	0.51988679644	0.00245	 0 0 0
O    0.502279991	0.234249988	0.4811354256	 0 0 0
O    0.497720009	0.765749996	0.5188645765	 0 0 0
O    0.997719977	0.265749996	0.98113543268	 0 0 0
O    0.002279997	0.734250034	0.01886461416	 0 0 0
O   0.497720009	0.234249988	0.01886461416	 0 0 0
O   0.502279991	0.765749996	0.98113543268	 0 0 0
O   0.002279997	0.265749996	0.5188645765	 0 0 0
O   0.997719977	0.734250034	0.4811354256	 0 0 0
O   0.73113547642	0.246560002	0.746550046	 0 0 0
O   0.26886460032000004	0.753440014	0.25344997	 0 0 0
O   0.7688645586799999	0.253439998	0.246550079	 0 0 0
O   0.23113544214	0.746559956	0.753449954	 0 0 0
O   0.26886460032000004	0.246560002	0.753449954	 0 0 0
O   0.73113547642	0.753440014	0.246550079	 0 0 0
O   0.23113544214	0.253439998	0.25344997	 0 0 0
O   0.7688645586799999	0.746559956	0.746550046	 0 0 0

K_POINTS automatic
6 6 6 0 0 0
