&CONTROL
    calculation   = 'scf'
    restart_mode  = 'from_scratch'
    prefix        = 'Landau_19'
    pseudo_dir    = '/cluster/scratch/mnoe/QE/pps'
    outdir        = './'
/
&SYSTEM
    ibrav       = 0
    nat         = 32
    ntyp        = 2
    ecutwfc     = 120
    occupations = 'smearing'
    degauss     = 7.35d-4
    tot_charge  = -1.0
/
&ELECTRONS
    conv_thr    = 1.0d-8
    diagonalization = 'david'
/

CELL_PARAMETERS angstrom
   7.434684730   0.000000000   0.000000000
   0.000000000   7.499402102   0.000000000
   0.000000000   0.000000000   7.463612428

ATOMIC_SPECIES
W 183.84 W_ONCV_LDA-4.0.upf
O 15.9994 O_ONCV_LDA-3.0.upf

ATOMIC_POSITIONS crystal
W 0.2227546619539522	0.274407626419368	0.006356032901288541	
W 0.7579046244564852	0.725592373580632	-0.026836947148711505	
W 0.27724533804604784	0.22559239105652343	0.5063560329911201	
W 0.74209530904639	0.7744076721720057	0.47316301209112005	
W 0.77724527674639	0.274407626419368	0.4936439670088799	
W 0.24209533804604783	0.725592373580632	0.5268369879088799	
W 0.7227546567564852	0.22559239105652343	-0.00635601105128859	
W 0.2579046619539522	0.7744076721720057	0.026836968998711457	
O 0.21457076525621296	0.006289751608482649	-0.013733777135912638	
O 0.7794177037919484	-0.006289780602204914	-0.024050783785912598	
O 0.28542920127698945	0.49371026515043276	0.4862661798972897	
O 0.7205822131047472	0.5062897806022049	0.47594919794728974	
O 0.7854291447047472	0.006289751608482649	0.5137337976093393	
O 0.22058219177698943	-0.006289780602204914	0.5240507795593394	
O 0.7145707721919484	0.49371026515043276	0.013733770485912677	
O 0.279417774756213	0.5062897806022049	0.024050777135912638	
O 0.5090526464509688	0.21251146163622225	0.46776253104926935	
O 0.49943863125096893	0.7790305044276852	0.5322375176551513	
O -0.009052641820912977	0.28748850986377766	0.9677625640492693	
O 0.0005613572290870368	0.7209696306149597	0.032237415625767596	
O 0.4909473535490311	0.21251146163622225	0.032237415625767596	
O 0.500561368749031	0.7790305044276852	0.9677625640492693	
O 0.00905259895096891	0.28748850986377766	0.5322375176551513	
O -0.0005614000990311029	0.7209696306149597	0.46776253104926935	
O 0.7177625219591133	0.26212139640705867	0.7455144053506818	
O 0.28223742933646595	0.7766374833547013	0.2600874000981488	
O 0.7822375572694158	0.23787858698676165	0.24551448844814877	
O 0.21776254704926934	0.7233626520844043	0.7600873787506819	
O 0.28223742933646595	0.26212139640705867	0.7544855613645528	
O 0.7177625219591133	0.7766374833547013	0.23991266165185127	
O 0.21776254704926934	0.23787858698676165	0.2544855733018513	
O 0.7822375572694158	0.7233626520844043	0.7399125879645527	

K_POINTS automatic
6 6 6 0 0 0
