&CONTROL
    calculation   = 'scf'
    restart_mode  = 'from_scratch'
    prefix        = 'Landau_10'
    pseudo_dir    = '/cluster/scratch/mnoe/QE/pps'
    outdir        = './'
/
&SYSTEM
    ibrav       = 0
    nat         = 32
    ntyp        = 2
    ecutwfc     = 120
    occupations = 'smearing'
    degauss     = 7.35d-4
    tot_charge  = -0.15
/
&ELECTRONS
    conv_thr    = 1.0d-8
    diagonalization = 'david'
/

CELL_PARAMETERS angstrom
   7.325751259   0.000000000   0.000000000
   0.000000000   7.730721777   0.000000000
   0.000000000   0.000000000   7.325751259

ATOMIC_SPECIES
W 183.84 W_ONCV_LDA-4.0.upf
O 15.9994 O_ONCV_LDA-3.0.upf

ATOMIC_POSITIONS crystal
W 0.25899001599999993	0.281860003	0.250250015	
W -0.2502500300000001	0.718139997	-0.7410100000000003	
W 0.24101000000000006	0.218140012	0.75025003	
W 0.750250015	0.781859972	0.7589900329999999	
W 0.741009985	0.281860003	0.7497500199999999	
W 0.25025001300000005	0.718139997	0.741010017	
W -0.24101000000000017	0.218140012	-0.7502500300000002	
W 0.24975000299999994	0.781859972	0.24100998500000004	
O 0.25988999300000004	0.00832	0.25717004899999996	
O -0.25717005699999995	0.991680023	-0.7401099590000001	
O 0.24010999099999997	0.491679992	0.757170025	
O 0.757170049	0.508319977	0.759890009	
O 0.740109951	0.00832	0.742829991	
O 0.257170009	0.991680023	0.740110007	
O -0.24010995899999998	0.491679992	-0.7571700570000001	
O 0.24282997500000003	0.508319977	0.240109951	
O 0.496820065	0.260660008	0.6995400039999999	
O 0.49934002499999997	0.7431599229999999	0.800459963	
O -0.9968200329999999	0.239339992	1.199540037	
O 0.0006599450000000118	0.7568400469999998	0.300460012	
O 0.5031799349999999	0.260660008	0.300460012	
O 0.5006599749999999	0.7431599229999999	1.199540037	
O -0.0031800289999999566	0.239339992	0.800459963	
O -1.000660007	0.7568400469999998	0.6995400039999999	
O 0.6995400369999999	0.243159984	2.000659975	
O 0.300459996	0.7393399929999999	0.49682003300000005	
O 0.800459963	0.25684001599999995	0.500660007	
O 0.19954001999999996	0.7606599769999999	1.996820065	
O 0.300459996	0.243159984	0.999340087	
O 0.699540037	0.7393399929999999	0.503179967	
O 0.19954002	0.25684001599999995	0.4993399930000001	
O 0.800459963	0.7606599769999999	1.003179997	

K_POINTS automatic
6 6 6 0 0 0
