&CONTROL
    calculation   = 'scf'
    restart_mode  = 'from_scratch'
    prefix        = 'chempot_3'
    pseudo_dir    = '/cluster/scratch/mnoe/QE/pps'
    outdir        = './'
/
&SYSTEM
    ibrav       = 0
    nat         = 16 
    ntyp        = 2
    ecutwfc     = 120
    occupations = 'smearing'
    degauss     = 7.35d-4
    tot_charge  = -.15
/
&ELECTRONS
    conv_thr    = 1.0d-8
    diagonalization = 'david'
/
CELL_PARAMETERS angstrom
   7.322253964   0.000000000   0.000000000
   0.000000000   7.733617898   0.000000000
   0.000000000   0.000000000   7.328508375


ATOMIC_SPECIES
W 183.84 W_ONCV_LDA-4.0.upf
O 15.9994 O_ONCV_LDA-3.0.upf

ATOMIC_POSITIONS crystal
W                     0.243990009         0.281860003         0.005680000
W                     0.756010024         0.718139997         0.994319964
W                     0.256009991         0.218140012         0.505680036
W                     0.743989976         0.781859972         0.494319996
O                    0.756010024         0.281860003         0.494319996
O                    0.243990009         0.718139997         0.505680036
O                    0.743989976         0.218140012         0.994319964
O                    0.256009991         0.781859972         0.005680000
O                     0.238910011         0.008320000         0.001770000
O                     0.761089989         0.991680023         0.998229998
O                     0.261089973         0.491679992         0.501770034
O                     0.738910011         0.508319977         0.498229998
O                     0.761089989         0.008320000         0.498229998
O                     0.238910011         0.991680023         0.501770034
O                     0.738910011         0.491679992         0.998229998
O                     0.261089973         0.508319977         0.001770000

K_POINTS automatic
6 6 6 0 0 0
