
&CONTROL
    calculation   = 'vc-relax'
    restart_mode  = 'from_scratch'
    prefix        = 'Landau_3'
    pseudo_dir    = '/cluster/scratch/mnoe/QE/pps'
    outdir        = './'
    forc_conv_thr = 1.0d-7
    etot_conv_thr = 1.0d-7

/
&SYSTEM
    ibrav       = 0
    nat         = 32
    ntyp        = 2
    ecutwfc     = 120
    occupations = 'smearing'
    degauss     = 7.35d-4
    tot_charge  = -0.0
/
&ELECTRONS
    conv_thr    = 1.0d-8
    diagonalization = 'david'
/


&IONS
ion_dynamics = 'bfgs'
/

&CELL
cell_dynamics = 'bfgs'
cell_dofree = 'all'
/
CELL_PARAMETERS angstrom
        7.3236460686         0.0000000000         0.0000000000
        0.0000000000         7.7495899200         0.0000000000
        0.0000000000         0.0000000000         7.3236460686

ATOMIC_SPECIES
W 183.84 W_ONCV_LDA-4.0.upf
O 15.9994 O_ONCV_LDA-3.0.upf

ATOMIC_POSITIONS crystal
W 0.2459162324448958	0.28039127455170915	0.0012345721434074716	 0 0 0
W 0.7514662245598399	0.7196087254482909	-0.004006424706592536	 0 0 0
W 0.2540837675551042	0.21960874093624422	0.5012345723698508	 0 0 0
W 0.7485337615486992	0.7803912586782639	0.4959935690698508	 0 0 0
W 0.7540837564486992	0.28039127455170915	0.49876542763014914	 0 0 0
W 0.24853376755510423	0.7196087254482909	0.5040064309301492	 0 0 0
W 0.74591622965984	0.21960874093624422	-0.0012345686934074793	 0 0 0
W 0.2514662324448958	0.7803912586782639	0.004006428156592528	 0 0 0
O 0.2444737085530965	0.00791987481342959	-0.0017423495371911844	 0 0 0
O 0.7547126972958424	-0.007919862060450533	-0.003371350587191178	 0 0 0
O 0.25552628657470533	0.49208012206610424	0.49825764409061063	 0 0 0
O 0.7452872865652438	0.5079198620604506	0.49662864694061065	 0 0 0
O 0.7555262757652438	0.00791987481342959	0.5017423521580309	 0 0 0
O 0.24528728507470535	-0.007919862060450533	0.5033713493080308	 0 0 0
O 0.7444737080958425	0.49208012206610424	0.0017423484871911905	 0 0 0
O 0.2547127100530965	0.5079198620604506	0.003371349537191184	 0 0 0
O 0.5013335989392289	0.2441761489646767	0.45313133403914063	 0 0 0
O 0.49981559653922886	0.7546791443577038	0.5468686490633209	 0 0 0
O -0.001333599019747621	0.2558238465353233	0.9531313670391406	 0 0 0
O 0.00018440083025238077	0.7453208538507184	0.04686866829816474	 0 0 0
O 0.49866640106077115	0.2441761489646767	0.04686866829816474	 0 0 0
O 0.5001844034607711	0.7546791443577038	0.9531313670391406	 0 0 0
O 0.0013335914392288751	0.2558238465353233	0.5468686490633209	 0 0 0
O -0.0001844084107711268	0.7453208538507184	0.45313133403914063	 0 0 0
O 0.7031313587439332	0.25147677549644404	0.7492285677511598	 0 0 0
O 0.2968686581536053	0.7537687774869241	0.25152956888621564	 0 0 0
O 0.796868656870575	0.24852322225610307	0.24922858283621563	 0 0 0
O 0.20313135003914065	0.7462312207965831	0.7515295635511597	 0 0 0
O 0.2968686581536053	0.25147677549644404	0.7507714228522852	 0 0 0
O 0.7031313587439332	0.7537687774869241	0.2484704408637844	 0 0 0
O 0.20313135003914065	0.24852322225610307	0.2507714269137844	 0 0 0
O 0.796868656870575	0.7462312207965831	0.7484704270522852	 0 0 0

K_POINTS automatic
6 6 6 0 0 0
