&CONTROL
    calculation   = 'scf'
    restart_mode  = 'from_scratch'
    prefix        = 'Landau_7'
    pseudo_dir    = '/cluster/scratch/mnoe/QE/pps'
    outdir        = './'
/
&SYSTEM
    ibrav       = 0
    nat         = 32
    ntyp        = 2
    ecutwfc     = 120
    occupations = 'smearing'
    degauss     = 7.35d-4
    tot_charge  = -0.2
/
&ELECTRONS
    conv_thr    = 1.0d-8
    diagonalization = 'david'
/

CELL_PARAMETERS angstrom
   7.348834132   0.000000000   0.000000000
   0.000000000   7.703868169   0.000000000
   0.000000000   0.000000000   7.351894328

ATOMIC_SPECIES
W 183.84 W_ONCV_LDA-4.0.upf
O 15.9994 O_ONCV_LDA-3.0.upf

ATOMIC_POSITIONS crystal
W 0.23894431355713525	0.28047411633410674	0.001263752326926151	
W 0.7518943088929332	0.7195258836658933	-0.010965240323073867	
W 0.26105568644286475	0.21952589912632425	0.5012637513694779	
W 0.7481056824039407	0.7804740996074672	0.4890347436694779	
W 0.7610556705039406	0.28047411633410674	0.49873624863052207	
W 0.24810568644286476	0.7195258836658933	0.510965256330522	
W 0.7389443207929332	0.21952589912632425	-0.0012637442769261693	
W 0.25189431355713526	0.7804740996074672	0.01096524837307385	
O 0.23663073221083772	0.007942443371746977	-0.007048473380169145	
O 0.760521716793942	-0.007942430040797581	-0.01084947583016913	
O 0.2633692535364687	0.49205755323256284	0.49295150886713723	
O 0.7394782666368467	0.5079424300407975	0.48915051551713723	
O 0.7633692414368467	0.007942443371746977	0.5070484837781082	
O 0.23947825003646867	-0.007942430040797581	0.5108494771281081	
O 0.736630741993942	0.49205755323256284	0.00704847093016916	
O 0.2605217357108377	0.5079424300407975	0.010849473380169145	
O 0.5037820948873011	0.23574327120136845	0.4529287695814517	
O 0.500240089287301	0.7602502715908758	0.5470712126127707	
O -0.0037820893941166722	0.2642567182986315	0.9529288025814516	
O -0.0002400897441166667	0.7397497492164268	0.04707123352648082	
O 0.4962179051126989	0.23574327120136845	0.04707123352648082	
O 0.49975991071269893	0.7602502715908758	0.9529288025814516	
O 0.0037820773873010636	0.2642567182986315	0.5470712126127707	
O 0.00024007773730105788	0.7397497492164268	0.4529287695814517	
O 0.702928794754125	0.2565057138875541	0.7486422546375526	
O 0.2970712230516526	0.7618537322931465	0.2540112435517547	
O 0.7970712199796665	0.24349427824636077	0.24864227610175468	
O 0.2029287855814517	0.7381462886019532	0.7540112448375526	
O 0.2970712230516526	0.2565057138875541	0.7513577523914915	
O 0.702928794754125	0.7618537322931465	0.24598877919824533	
O 0.2029287855814517	0.24349427824636077	0.25135774664824534	
O 0.7970712199796665	0.7381462886019532	0.7459887621914915	

K_POINTS automatic
6 6 6 0 0 0
