
&CONTROL
    calculation   = 'vc-relax'
    restart_mode  = 'from_scratch'
    prefix        = 'Landau_3'
    pseudo_dir    = '/cluster/scratch/mnoe/QE/pps'
    outdir        = './'
    forc_conv_thr = 1.0d-7
    etot_conv_thr = 1.0d-7

/
&SYSTEM
    ibrav       = 0
    nat         = 32
    ntyp        = 2
    ecutwfc     = 120
    occupations = 'smearing'
    degauss     = 7.35d-4
    tot_charge  = -0.0
/
&ELECTRONS
    conv_thr    = 1.0d-8
    diagonalization = 'david'
/


&IONS
ion_dynamics = 'bfgs'
/

&CELL
cell_dynamics = 'bfgs'
cell_dofree = 'all'
/
CELL_PARAMETERS angstrom
        7.3236460686         0.0000000000         0.0000000000
        0.0000000000         7.7495899200         0.0000000000
        0.0000000000         0.0000000000         7.3236460686

ATOMIC_SPECIES
W 183.84 W_ONCV_LDA-4.0.upf
O 15.9994 O_ONCV_LDA-3.0.upf

ATOMIC_POSITIONS crystal
W 0.248610007	0.2823905003391792	0.00131	 0 0 0
W 0.751390009	0.7176094996608208	0.998690014	 0 0 0
W 0.251389976	0.21760951395786426	0.501309986	 0 0 0
W 0.748609991	0.7823904693391792	0.498690014	 0 0 0
W 0.751390009	0.2823905003391792	0.498690014	 0 0 0
W 0.248610007	0.7176094996608208	0.501309986	 0 0 0
W 0.748609991	0.21760951395786426	0.998690014	 0 0 0
W 0.251389976	0.7823904693391792	0.00131	 0 0 0
O 0.247439995	0.009323822047842704	0.00041	 0 0 0
O 0.752560005	0.9906762022174792	0.99958999	 0 0 0
O 0.252560021	0.49067616976470224	0.50041001	 0 0 0
O 0.747439995	0.5093238006880747	0.499590023	 0 0 0
O 0.752560005	0.009323822047842704	0.499590023	 0 0 0
O 0.247439995	0.9906762022174792	0.50041001	 0 0 0
O 0.747439995	0.49067616976470224	0.99958999	 0 0 0
O 0.252560021	0.5093238006880747	0.00041	 0 0 0
O 0.500379993	0.247369999	0.45228200518721556	 0 0 0
O 0.499620007	0.752630001	0.5477179648589297	 0 0 0
O 0.999620007	0.252630001	0.9522820359377545	 0 0 0
O 0.000380039	0.747370029	0.04771801287479041	 0 0 0
O 0.499620007	0.247369999	0.04771801287479041	 0 0 0
O 0.500379993	0.752630001	0.9522820359377545	 0 0 0
O 0.000380039	0.252630001	0.5477179648589297	 0 0 0
O 0.999620007	0.747370029	0.45228200518721556	 0 0 0
O 0.70228203973372	0.249429995	0.749419983	 0 0 0
O 0.2977179970622455	0.750570021	0.250580017	 0 0 0
O 0.7977179633124252	0.250570005	0.249419934	 0 0 0
O 0.20228202123407935	0.74943001	0.750580017	 0 0 0
O 0.2977179970622455	0.249429995	0.750580017	 0 0 0
O 0.70228203973372	0.750570021	0.249419934	 0 0 0
O 0.20228202123407935	0.250570005	0.250580017	 0 0 0
O 0.7977179633124252	0.74943001	0.749419983	 0 0 0

K_POINTS automatic
6 6 6 0 0 0
