
&CONTROL
    calculation   = 'vc-relax'
    restart_mode  = 'from_scratch'
    prefix        = 'Landau_24'
    pseudo_dir    = '/cluster/scratch/mnoe/QE/pps'
    outdir        = './'
    forc_conv_thr = 1.0d-7
    etot_conv_thr = 1.0d-7

/
&SYSTEM
    ibrav       = 0
    nat         = 32
    ntyp        = 2
    ecutwfc     = 120
    occupations = 'smearing'
    degauss     = 7.35d-4
    tot_charge  = -0.0
/
&ELECTRONS
    conv_thr    = 1.0d-8
    diagonalization = 'david'
/


&IONS
ion_dynamics = 'bfgs'
/

&CELL
cell_dynamics = 'bfgs'
cell_dofree = 'all'
/
CELL_PARAMETERS angstrom
        7.3236460686         0.0000000000         0.0000000000
        0.0000000000         7.7495899200         0.0000000000
        0.0000000000         0.0000000000         7.3236460686

ATOMIC_SPECIES
W 183.84 W_ONCV_LDA-4.0.upf
O 15.9994 O_ONCV_LDA-3.0.upf

ATOMIC_POSITIONS crystal
0.2389	0.28403208229744004	0.01048	 0 0 0
0.761100016	0.71596791770256	0.989520045	 0 0 0
0.2611	0.21596792982436	0.510479988	 0 0 0
0.738899984	0.78403205129744	0.489520012	 0 0 0
0.761100016	0.28403208229744004	0.489520012	 0 0 0
0.2389	0.71596791770256	0.510479988	 0 0 0
0.738899984	0.21596792982436	0.989520045	 0 0 0
0.2611	0.78403205129744	0.01048	 0 0 0
0.229530007	0.01243006979188	0.00326	 0 0 0
0.770470009	0.98756995838888	0.996739977	 0 0 0
0.270469993	0.4875699214406	0.503260023	 0 0 0
0.729529991	0.51243005350768	0.49674001	 0 0 0
0.770470009	0.01243006979188	0.49674001	 0 0 0
0.229530007	0.98756995838888	0.503260023	 0 0 0
0.729529991	0.4875699214406	0.996739977	 0 0 0
0.270469993	0.51243005350768	0.00326	 0 0 0
0.503030015	0.228990001	0.4607669104752	 0 0 0
0.496969985	0.771009968	0.539233068997	 0 0 0
0.996970018	0.271009968	0.96076693426496	 0 0 0
0.003030062	0.728990001	0.039233113967519995	 0 0 0
0.496969985	0.228990001	0.039233113967519995	 0 0 0
0.503030015	0.771009968	0.96076693426496	 0 0 0
0.003030062	0.271009968	0.539233068997	 0 0 0
0.996970018	0.728990001	0.4607669104752	 0 0 0
0.71076694980724	0.245409992	0.74540004	 0 0 0
0.28923309873504	0.754590054	0.254599993	 0 0 0
0.78923306266496	0.254590008	0.245399958	 0 0 0
0.21076692666708002	0.745409977	0.75459996	 0 0 0
0.28923309873504	0.245409992	0.75459996	 0 0 0
0.71076694980724	0.754590054	0.245399958	 0 0 0
0.21076692666708002	0.254590008	0.254599993	 0 0 0
0.78923306266496	0.745409977	0.74540004	 0 0 0

K_POINTS automatic
6 6 6 0 0 0
