
&CONTROL
    calculation   = 'vc-relax'
    restart_mode  = 'from_scratch'
    prefix        = 'Landau_23'
    pseudo_dir    = '/cluster/scratch/mnoe/QE/pps'
    outdir        = './'
    forc_conv_thr = 1.0d-7
    etot_conv_thr = 1.0d-7

/
&SYSTEM
    ibrav       = 0
    nat         = 32
    ntyp        = 2
    ecutwfc     = 120
    occupations = 'smearing'
    degauss     = 7.35d-4
    tot_charge  = -0.0
/
&ELECTRONS
    conv_thr    = 1.0d-8
    diagonalization = 'david'
/


&IONS
ion_dynamics = 'bfgs'
/

&CELL
cell_dynamics = 'bfgs'
cell_dofree = 'all'
/
CELL_PARAMETERS angstrom
        7.3236460686         0.0000000000         0.0000000000
        0.0000000000         7.7495899200         0.0000000000
        0.0000000000         0.0000000000         7.3236460686

ATOMIC_SPECIES
W 183.84 W_ONCV_LDA-4.0.upf
O 15.9994 O_ONCV_LDA-3.0.upf

ATOMIC_POSITIONS crystal
W       0.23936	0.28967079472	0.01005	 0 0 0
W       0.76064	0.71032920528	0.989949978	 0 0 0
W       0.26064	0.21032920993	0.510049989	 0 0 0
W       0.73936	0.78967076372	0.489950011	 0 0 0
W      0.76064	0.28967079472	0.489950011	 0 0 0
W      0.23936	0.71032920528	0.510049989	 0 0 0
W      0.73936	0.21032920993	0.989949978	 0 0 0
W      0.26064	0.78967076372	0.01005	 0 0 0
O       0.230379994	0.02309980069	0.00312	 0 0 0
O       0.769619973	0.9769002409399999	0.996879968	 0 0 0
O       0.269620006	0.47690018855000005	0.503119999	 0 0 0
O       0.730380027	0.52309980184	0.496880001	 0 0 0
O       0.769619973	0.02309980069	0.496880001	 0 0 0
O       0.230379994	0.9769002409399999	0.503119999	 0 0 0
O       0.730380027	0.47690018855000005	0.996879968	 0 0 0
O       0.269620006	0.52309980184	0.00312	 0 0 0
O    0.502910014	0.229870006	0.4899119316	 0 0 0
O    0.497089986	0.770129994	0.51008808025	 0 0 0
O    0.997089954	0.270129994	0.98991193148	 0 0 0
O    0.002910018	0.729870037	0.010088114760000003	 0 0 0
O   0.497089986	0.229870006	0.010088114760000003	 0 0 0
O   0.502910014	0.770129994	0.98991193148	 0 0 0
O   0.002910018	0.270129994	0.51008808025	 0 0 0
O   0.997089954	0.729870037	0.4899119316	 0 0 0
O   0.73991198737	0.245600004	0.745589971	 0 0 0
O   0.26008810152	0.754400042	0.254410029	 0 0 0
O   0.76008805748	0.254400011	0.245589971	 0 0 0
O   0.23991194829	0.745599989	0.754410029	 0 0 0
O   0.26008810152	0.245600004	0.754410029	 0 0 0
O   0.73991198737	0.754400042	0.245589971	 0 0 0
O   0.23991194829	0.254400011	0.254410029	 0 0 0
O   0.76008805748	0.745599989	0.745589971	 0 0 0

K_POINTS automatic
6 6 6 0 0 0
