&CONTROL
    calculation   = 'scf'
    restart_mode  = 'from_scratch'
    prefix        = 'Landau_33'
    pseudo_dir    = '/cluster/scratch/mnoe/QE/pps'
    outdir        = './'
/
&SYSTEM
    ibrav       = 0
    nat         = 16
    ntyp        = 2
    ecutwfc     = 120
    occupations = 'smearing'
    degauss     = 7.35d-4
    tot_charge  = -0.18
/
&ELECTRONS
    conv_thr    = 1.0d-8
    diagonalization = 'david'
/

CELL_PARAMETERS angstrom
5.25856261007413795289 0 0
0 5.25856261007413795289 0
0 0 7.62259188895724138709

ATOMIC_SPECIES
W 183.84 W_ONCV_LDA-4.0.upf
O 15.9994 O_ONCV_LDA-3.0.upf

ATOMIC_POSITIONS crystal
W           0.24999999999991593	0.24999999999985023	0.20691661328065555	
W           0.7500000229999263	0.7500000229999723	0.7930834017161541	
W           0.7500000230000246	0.7500000230000637	0.29308340171934255	
W           0.24999999999990055	0.2500000000000473	0.7069165982838461	
O          0.24999999999964295	0.2499999999998869	0.47046861733415196	
O          0.7500000229999901	0.7500000230004257	0.5295313826707526	
O          0.7500000229998308	0.750000023000025	0.02953139566585475	
O          0.2499999999996945	0.250000000000071	0.9704686173292363	
O           0.5073386129582358	0.4926613410416689	0.2500000000000553	
O           0.4926613870769885	0.5073386589230514	0.7499999999999981	
O           -0.007338629957883681	1.0073386589577016	0.2500000000000054	
O           1.0073385669234933	-0.0073385959233611756	0.7500000000002695	
O           1.0073386589579143	0.5073386129578652	0.2500000000002072	
O           -0.007338595923037691	0.492661387076957	0.7499999999999674	
O           0.4926613410419281	-0.007338629958005223	0.2499999999998436	
O           0.507338658923516	1.0073385669234296	0.7499999999996636	

K_POINTS automatic
9 9 6 0 0 0
