
&CONTROL
    calculation   = 'vc-relax'
    restart_mode  = 'from_scratch'
    prefix        = 'Landau_28'
    pseudo_dir    = '/cluster/scratch/mnoe/QE/pps'
    outdir        = './'
    forc_conv_thr = 1.0d-7
    etot_conv_thr = 1.0d-7

/
&SYSTEM
    ibrav       = 0
    nat         = 16
    ntyp        = 2
    ecutwfc     = 120
    occupations = 'smearing'
    degauss     = 7.35d-4
    tot_charge  = -0.0
/
&ELECTRONS
    conv_thr    = 1.0d-8
    diagonalization = 'david'
/


&IONS
ion_dynamics = 'bfgs'
/

&CELL
cell_dynamics = 'bfgs'
cell_dofree = 'all'
/
CELL_PARAMETERS angstrom
        5.177959919             0.0             0.0
        0.0             5.177959919             0.0
        0.0             0.0            7.7496299744

ATOMIC_SPECIES
W 183.84 W_ONCV_LDA-4.0.upf
O 15.9994 O_ONCV_LDA-3.0.upf

ATOMIC_POSITIONS crystal
W       0.24999999999992867	0.24999999999987293	0.20861409475328352	 0 0 0
W       0.7500000229999374	0.7500000229999764	0.7913859202440096	 0 0 0
W       0.7500000230000208	0.7500000230000541	0.2913859202467149	 0 0 0
W       0.24999999999991562	0.25000000000004013	0.7086140797559907	 0 0 0
O      0.24999999999969705	0.24999999999990405	0.4736809519804926	 0 0 0
O      0.7500000229999916	0.7500000230003612	0.5263190480236688	 0 0 0
O      0.7500000229998565	0.7500000230000212	0.02631906101951312	 0 0 0
O      0.2499999999997408	0.25000000000006023	0.9736809519763218	 0 0 0
O       0.4985615467524425	0.5014384072474767	0.2500000000000469	 0 0 0
O       0.5014384532774447	0.49856159272258904	0.7499999999999984	 0 0 0
O       0.0014384362478562646	0.9985615927519891	0.25000000000000455	 0 0 0
O       0.998561500722964	0.0014384702771480865	0.7500000000002287	 0 0 0
O       0.9985615927521697	0.49856154675212805	0.25000000000017586	 0 0 0
O       0.0014384702774225613	0.5014384532774181	0.7499999999999724	 0 0 0
O       0.5014384072476966	0.0014384362477531387	0.2499999999998673	 0 0 0
O       0.49856159272298334	0.9985615007229098	0.7499999999997146	 0 0 0

K_POINTS automatic
9 9 6 0 0 0
