
&CONTROL
    calculation   = 'vc-relax'
    restart_mode  = 'from_scratch'
    prefix        = 'Landau_28'
    pseudo_dir    = '/cluster/scratch/mnoe/QE/pps'
    outdir        = './'
    forc_conv_thr = 1.0d-7
    etot_conv_thr = 1.0d-7

/
&SYSTEM
    ibrav       = 0
    nat         = 32
    ntyp        = 2
    ecutwfc     = 120
    occupations = 'smearing'
    degauss     = 7.35d-4
    tot_charge  = -0.0
/
&ELECTRONS
    conv_thr    = 1.0d-8
    diagonalization = 'david'
/


&IONS
ion_dynamics = 'bfgs'
/

&CELL
cell_dynamics = 'bfgs'
cell_dofree = 'all'
/
CELL_PARAMETERS angstrom
        7.3236460686         0.0000000000         0.0000000000
        0.0000000000         7.7495899200         0.0000000000
        0.0000000000         0.0000000000         7.3236460686

ATOMIC_SPECIES
W 183.84 W_ONCV_LDA-4.0.upf
O 15.9994 O_ONCV_LDA-3.0.upf

ATOMIC_POSITIONS crystal
W 0.25	0.27071650107544387	0.0	 0 0 0
W 0.7499999407649857	0.7292834989245561	0.0	 0 0 0
W 0.25	0.22928351762674434	0.5	 0 0 0
W 0.7499999407649857	0.7707165848432842	0.5	 0 0 0
W 0.7499999407649857	0.27071650107544387	0.5	 0 0 0
W 0.25	0.7292834989245561	0.5	 0 0 0
W 0.7499999407649857	0.22928351762674434	0.0	 0 0 0
W 0.25	0.7707165848432842	0.0	 0 0 0
O 0.25	0.0052841795991632615	0.0	 0 0 0
O 0.7499999407649857	0.9947157656548804	0.0	 0 0 0
O 0.25	0.49471584942272073	0.5	 0 0 0
O 0.7499999407649857	0.5052842343451196	0.5	 0 0 0
O 0.7499999407649857	0.0052841795991632615	0.5	 0 0 0
O 0.25	0.9947157656548804	0.5	 0 0 0
O 0.7499999407649857	0.49471584942272073	0.0	 0 0 0
O 0.25	0.5052842343451196	0.0	 0 0 0
O 0.5	0.25	0.47678805877108454	 0 0 0
O 0.5	0.750000040532826	0.5232120304011324	 0 0 0
O 0.0	0.25	0.9767880917710846	 0 0 0
O 0.0	0.750000040532826	0.023211853567640255	 0 0 0
O 0.5	0.25	0.023211853567640255	 0 0 0
O 0.5	0.750000040532826	0.9767880917710846	 0 0 0
O 0.0	0.25	0.5232120304011324	 0 0 0
O 0.0	0.750000040532826	0.47678805877108454	 0 0 0
O 0.7267880288338819	0.25	0.7499999407649857	 0 0 0
O 0.2732118819939009	0.750000040532826	0.25	 0 0 0
O 0.7732120896361466	0.25	0.25	 0 0 0
O 0.2267880747710846	0.750000040532826	0.7499999407649857	 0 0 0
O 0.2732118819939009	0.25	0.7499999407649857	 0 0 0
O 0.7267880288338819	0.750000040532826	0.25	 0 0 0
O 0.2267880747710846	0.25	0.25	 0 0 0
O 0.7732120896361466	0.750000040532826	0.7499999407649857	 0 0 0

K_POINTS automatic
6 6 6 0 0 0
