&CONTROL
    calculation   = 'scf'
    restart_mode  = 'from_scratch'
    prefix        = 'Landau_39'
    pseudo_dir    = '/cluster/scratch/mnoe/QE/pps'
    outdir        = './'
/
&SYSTEM
    ibrav       = 0
    nat         = 32
    ntyp        = 2
    ecutwfc     = 120
    occupations = 'smearing'
    degauss     = 7.35d-4
    tot_charge  = -0.36
/
&ELECTRONS
    conv_thr    = 1.0d-8
    diagonalization = 'david'
/

CELL_PARAMETERS angstrom
   7.464875151   0.000000000   0.000000000
   0.000000000   7.498428095   0.000000000
   0.000000000   0.000000000   7.404451731

ATOMIC_SPECIES
W 183.84 W_ONCV_LDA-4.0.upf
O 15.9994 O_ONCV_LDA-3.0.upf

ATOMIC_POSITIONS crystal
W        0.23196	0.29510438896	0.01704	
W        0.768040033	0.70489561104	0.982959956	
W        0.26804	0.20489560849	0.517040012	
W        0.731959967	0.79510435796	0.482959988	
W       0.768040033	0.29510438896	0.482959988	
W       0.23196	0.70489561104	0.517040012	
W       0.731959967	0.20489560849	0.982959956	
W       0.26804	0.79510435796	0.01704	
O        0.216730001	0.03338140117	0.0053	
O        0.783270032	0.96661865342	0.994700022	
O        0.283269999	0.46661858615000007	0.505299978	
O        0.716729968	0.53338141912	0.494700022	
O        0.783270032	0.03338140117	0.494700022	
O        0.216730001	0.96661865342	0.505299978	
O        0.716729968	0.46661858615000007	0.994700022	
O        0.283269999	0.53338141912	0.0053	
O    0.504930013	0.215869991	0.5179967508000001	
O    0.495069987	0.784129963	0.48200329224999994	
O    0.995069987	0.284129994	1.01799672764	
O    0.004930019	0.715870006	-0.017996683319999998	
O   0.495069987	0.215869991	-0.017996683319999998	
O   0.504930013	0.784129963	1.01799672764	
O   0.004930019	0.284129994	0.48200329224999994	
O   0.995069987	0.715870006	0.5179967508000001	
O   0.76799682241	0.242549998	0.742519945	
O   0.23200330536000002	0.757449956	0.257480022	
O   0.73200325364	0.257449986	0.242519978	
O   0.26799676797	0.742550014	0.757480055	
O   0.23200330536000002	0.242549998	0.757480055	
O   0.76799682241	0.757449956	0.242519978	
O   0.26799676797	0.257449986	0.257480022	
O   0.73200325364	0.742550014	0.742519945	

K_POINTS automatic
6 6 6 0 0 0
