
&CONTROL
    calculation   = 'vc-relax'
    restart_mode  = 'from_scratch'
    prefix        = 'Landau_32'
    pseudo_dir    = '/cluster/scratch/mnoe/QE/pps'
    outdir        = './'
    forc_conv_thr = 1.0d-7
    etot_conv_thr = 1.0d-7

/
&SYSTEM
    ibrav       = 0
    nat         = 32
    ntyp        = 2
    ecutwfc     = 120
    occupations = 'smearing'
    degauss     = 7.35d-4
    tot_charge  = -0.0
/
&ELECTRONS
    conv_thr    = 1.0d-8
    diagonalization = 'david'
/


&IONS
ion_dynamics = 'bfgs'
/

&CELL
cell_dynamics = 'bfgs'
cell_dofree = 'all'
/
CELL_PARAMETERS angstrom
        7.3236460686         0.0000000000         0.0000000000
        0.0000000000         7.7495899200         0.0000000000
        0.0000000000         0.0000000000         7.3236460686

ATOMIC_SPECIES
W 183.84 W_ONCV_LDA-4.0.upf
O 15.9994 O_ONCV_LDA-3.0.upf

ATOMIC_POSITIONS crystal
W 0.2352	0.27710572271111955	0.013980001	 0 0 0
W 0.7647999747278852	0.7228942772888804	0.98602002	 0 0 0
W 0.264800016	0.22289429386838755	0.51397998	 0 0 0
W 0.7351999747278851	0.7771057406758423	0.486019987	 0 0 0
W 0.7647999747278852	0.27710572271111955	0.486019987	 0 0 0
W 0.2352	0.7228942772888804	0.51397998	 0 0 0
W 0.7351999747278851	0.22289429386838755	0.98602002	 0 0 0
W 0.264800016	0.7771057406758423	0.013980001	 0 0 0
O 0.222699997	0.007024793054284494	0.00435	 0 0 0
O 0.7772999617278852	0.9929751967760647	0.995650004	 0 0 0
O 0.277299987	0.49297521474078737	0.504349996	 0 0 0
O 0.7226999877278851	0.5070248032239353	0.495650004	 0 0 0
O 0.7772999617278852	0.007024793054284494	0.495650004	 0 0 0
O 0.222699997	0.9929751967760647	0.504349996	 0 0 0
O 0.7226999877278851	0.49297521474078737	0.995650004	 0 0 0
O 0.277299987	0.5070248032239353	0.00435	 0 0 0
O 0.504050025	0.221990001	0.4611651547457483	 0 0 0
O 0.495949975	0.7780100386926078	0.5388348643779886	 0 0 0
O 0.995949975	0.278010015	0.9611651877457483	 0 0 0
O 0.004050016	0.7219900396926078	0.038834817028050535	 0 0 0
O 0.495949975	0.221990001	0.038834817028050535	 0 0 0
O 0.504050025	0.7780100386926078	0.9611651877457483	 0 0 0
O 0.004050016	0.278010015	0.5388348643779886	 0 0 0
O 0.995949975	0.7219900396926078	0.4611651547457483	 0 0 0
O 0.7111651608941263	0.243880005	0.7438599877278852	 0 0 0
O 0.28883481998213667	0.7561200186926078	0.256139987	 0 0 0
O 0.7888348896501035	0.256119995	0.243860013	 0 0 0
O 0.21116517074574837	0.7438800596926077	0.7561399617278851	 0 0 0
O 0.28883481998213667	0.243880005	0.7561399617278851	 0 0 0
O 0.7111651608941263	0.7561200186926078	0.243860013	 0 0 0
O 0.21116517074574837	0.256119995	0.256139987	 0 0 0
O 0.7888348896501035	0.7438800596926077	0.7438599877278852	 0 0 0

K_POINTS automatic
6 6 6 0 0 0
