
&CONTROL
    calculation   = 'vc-relax'
    restart_mode  = 'from_scratch'
    prefix        = 'Landau_8'
    pseudo_dir    = '/cluster/scratch/mnoe/QE/pps'
    outdir        = './'
    forc_conv_thr = 1.0d-7
    etot_conv_thr = 1.0d-7

/
&SYSTEM
    ibrav       = 0
    nat         = 32
    ntyp        = 2
    ecutwfc     = 120
    occupations = 'smearing'
    degauss     = 7.35d-4
    tot_charge  = -0.0
/
&ELECTRONS
    conv_thr    = 1.0d-8
    diagonalization = 'david'
/


&IONS
ion_dynamics = 'bfgs'
/

&CELL
cell_dynamics = 'bfgs'
cell_dofree = 'all'
/
CELL_PARAMETERS angstrom
        7.3236460686         0.0000000000         0.0000000000
        0.0000000000         7.7495899200         0.0000000000
        0.0000000000         0.0000000000         7.3236460686

ATOMIC_SPECIES
W 183.84 W_ONCV_LDA-4.0.upf
O 15.9994 O_ONCV_LDA-3.0.upf

ATOMIC_POSITIONS crystal
W 0.24907604714656723	0.278718337869966	0.0008725112039688353	 0 0 0
W 0.7509239353043863	0.721281662130034	-0.0008725100552706958	 0 0 0
W 0.2509239528534328	0.22128167817378447	0.5008725117034029	 0 0 0
W 0.7490760312955963	0.7787183392262329	0.4991274882965972	 0 0 0
W 0.7509239353043863	0.278718337869966	0.4991274882965972	 0 0 0
W 0.24907604714656723	0.721281662130034	0.5008725117034029	 0 0 0
W 0.7490760312955963	0.22128167817378447	-0.0008725100552706958	 0 0 0
W 0.2509239528534328	0.7787183392262329	0.0008725112039688353	 0 0 0
O 0.24829543119464606	0.007464117247977733	0.0002711926483318905	 0 0 0
O 0.7517045496581187	-0.007464116166739134	-0.00027119299793567085	 0 0 0
O 0.25170456800625957	0.49253588518952773	0.5002711913498036	 0 0 0
O 0.7482954169418639	0.5074641161667391	0.49972880700206435	 0 0 0
O 0.7517045496581187	0.007464117247977733	0.49972880700206435	 0 0 0
O 0.24829543119464606	-0.007464116166739134	0.5002711913498036	 0 0 0
O 0.7482954169418639	0.49253588518952773	-0.00027119299793567085	 0 0 0
O 0.25170456800625957	0.5074641161667391	0.0002711926483318905	 0 0 0
O 0.5002527139908104	0.24825148170406872	0.45722199338853614	 0 0 0
O 0.4997472860091896	0.7517485197013404	0.5427780080552318	 0 0 0
O -0.00025271563894253254	0.25174851679762933	0.9572220263885362	 0 0 0
O 0.00025271149364054074	0.7482514846077798	0.04277799338644864	 0 0 0
O 0.4997472860091896	0.24825148170406872	0.04277799338644864	 0 0 0
O 0.5002527139908104	0.7517485197013404	0.9572220263885362	 0 0 0
O 0.00025271149364054074	0.25174851679762933	0.5427780080552318	 0 0 0
O -0.00025271563894253254	0.7482514846077798	0.45722199338853614	 0 0 0
O 0.7072220086447769	0.2496184325431178	0.7496169181405054	 0 0 0
O 0.29277798991145515	0.7503815704105367	0.25038306515948594	 0 0 0
O 0.7927780247552405	0.2503815674568822	0.2496169380868349	 0 0 0
O 0.20722200938853613	0.7496184339485269	0.7503830484594772	 0 0 0
O 0.29277798991145515	0.2496184325431178	0.7503830484594772	 0 0 0
O 0.7072220086447769	0.7503815704105367	0.2496169380868349	 0 0 0
O 0.20722200938853613	0.2503815674568822	0.25038306515948594	 0 0 0
O 0.7927780247552405	0.7496184339485269	0.7496169181405054	 0 0 0

K_POINTS automatic
6 6 6 0 0 0
