&CONTROL
    calculation   = 'scf'
    restart_mode  = 'from_scratch'
    prefix        = 'Landau_7'
    pseudo_dir    = '/cluster/scratch/mnoe/QE/pps'
    outdir        = './'
/
&SYSTEM
    ibrav       = 0
    nat         = 32
    ntyp        = 2
    ecutwfc     = 120
    occupations = 'smearing'
    degauss     = 7.35d-4
    tot_charge  = -1.0
/
&ELECTRONS
    conv_thr    = 1.0d-8
    diagonalization = 'david'
/

CELL_PARAMETERS angstrom
   7.408381856   0.000000000   0.000000000
   0.000000000   7.675653177   0.000000000
   0.000000000   0.000000000   7.411514457

ATOMIC_SPECIES
W 183.84 W_ONCV_LDA-4.0.upf
O 15.9994 O_ONCV_LDA-3.0.upf

ATOMIC_POSITIONS crystal
W 0.2440036095591102	0.276434982198593	0.003368258770375761	
W 0.7537058379496578	0.7235650178014069	-0.0057938153909793	
W 0.2559963904408898	0.22356503460375315	0.5033682602781593	
W 0.7462941058830453	0.7764350070713273	0.4942061748412054	
W 0.7559963564899966	0.276434982198593	0.49663173972184066	
W 0.24629413091834867	0.7235650178014069	0.5057938251587946	
W 0.7440035873427066	0.22356503460375315	-0.003368252739241478	
W 0.2537058690816513	0.7764350070713273	0.005793821422113583	
O 0.24069434924555388	0.006842063446897017	-0.0008135452121175175	
O 0.7585936720798161	-0.006842078296168553	-0.0036612913291611073	
O 0.2593056443955328	0.49315794657656564	0.4991864458067368	
O 0.7414062697862128	0.5068420782961686	0.49633870650749723	
O 0.7593056086090769	0.006842063446897017	0.5008135465887895	
O 0.2414062840703638	-0.006842078296168553	0.503661285888029	
O 0.740694333256952	0.49315794657656564	0.0008135433765549161	
O 0.25859370957072286	0.5068420782961686	0.0036612894935985057	
O 0.5018296637696945	0.24031871872922084	0.46280524727197964	
O 0.4991759604830927	0.7586796057449872	0.537194779205447	
O -0.0018296681619336661	0.25968127340408226	0.9628052802719796	
O 0.000824030666873273	0.7413204380576989	0.037194718262324955	
O 0.49817033623030543	0.24031871872922084	0.037194718262324955	
O 0.5008240395169072	0.7586796057449872	0.9628052802719796	
O 0.0018296506585330386	0.25968127340408226	0.537194779205447	
O -0.0008240481702739006	0.7413204380576989	0.46280524727197964	
O 0.7128052496320932	0.2502917218359685	0.7483204377310522	
O 0.28719472389048006	0.7542985187941287	0.2523429614163997	
O 0.7871948080429872	0.24970827619735725	0.24832048144976068	
O 0.21280526327197963	0.7457015252052248	0.7523429347422012	
O 0.28719472389048006	0.2502917218359685	0.7516795100349994	
O 0.7128052496320932	0.7542985187941287	0.24765705562811022	
O 0.21280526327197963	0.24970827619735725	0.2516795355947493	
O 0.7871948080429872	0.7457015252052248	0.7476570130238505	

K_POINTS automatic
6 6 6 0 0 0
