
&CONTROL
    calculation   = 'vc-relax'
    restart_mode  = 'from_scratch'
    prefix        = 'Landau_17'
    pseudo_dir    = '/cluster/scratch/mnoe/QE/pps'
    outdir        = './'
    forc_conv_thr = 1.0d-7
    etot_conv_thr = 1.0d-7

/
&SYSTEM
    ibrav       = 0
    nat         = 32
    ntyp        = 2
    ecutwfc     = 120
    occupations = 'smearing'
    degauss     = 7.35d-4
    tot_charge  = -0.0
/
&ELECTRONS
    conv_thr    = 1.0d-8
    diagonalization = 'david'
/


&IONS
ion_dynamics = 'bfgs'
/

&CELL
cell_dynamics = 'bfgs'
cell_dofree = 'all'
/
CELL_PARAMETERS angstrom
        7.3236460686         0.0000000000         0.0000000000
        0.0000000000         7.7495899200         0.0000000000
        0.0000000000         0.0000000000         7.3236460686

ATOMIC_SPECIES
W 183.84 W_ONCV_LDA-4.0.upf
O 15.9994 O_ONCV_LDA-3.0.upf

ATOMIC_POSITIONS crystal
0.242140001	0.28339855916902	0.00743	 0 0 0
0.757859983	0.71660144083098	0.992569951	 0 0 0
0.257859999	0.21660145379225498	0.507430016	 0 0 0
0.742140017	0.78339852816902	0.492570016	 0 0 0
0.757859983	0.28339855916902	0.492570016	 0 0 0
0.242140001	0.71660144083098	0.507430016	 0 0 0
0.742140017	0.21660145379225498	0.992569951	 0 0 0
0.257859999	0.78339852816902	0.00743	 0 0 0
0.235499987	0.011231299435914999	0.00231	 0 0 0
0.764500029	0.9887687272337901	0.997690025	 0 0 0
0.264500029	0.488768692020425	0.502309975	 0 0 0
0.735499971	0.51123128119294	0.497689993	 0 0 0
0.764500029	0.011231299435914999	0.497689993	 0 0 0
0.235499987	0.9887687272337901	0.502309975	 0 0 0
0.735499971	0.488768692020425	0.997690025	 0 0 0
0.264500029	0.51123128119294	0.00231	 0 0 0
0.502149995	0.235119995	0.4574923960866	 0 0 0
0.497850005	0.76487999	0.542507579747875	 0 0 0
0.997850005	0.26487999	0.95749242256268	 0 0 0
0.002150059	0.735119979	0.04250762589366	 0 0 0
0.497850005	0.235119995	0.04250762589366	 0 0 0
0.502149995	0.76487999	0.95749242256268	 0 0 0
0.002150059	0.26487999	0.542507579747875	 0 0 0
0.997850005	0.735119979	0.4574923960866	 0 0 0
0.707492433571795	0.246749998	0.746739977	 0 0 0
0.29250761043732	0.753250002	0.253260023	 0 0 0
0.79250757526268	0.253250002	0.246739977	 0 0 0
0.20749241222251502	0.746749968	0.753260023	 0 0 0
0.29250761043732	0.246749998	0.753260023	 0 0 0
0.707492433571795	0.753250002	0.246739977	 0 0 0
0.20749241222251502	0.253250002	0.253260023	 0 0 0
0.79250757526268	0.746749968	0.746739977	 0 0 0

K_POINTS automatic
6 6 6 0 0 0
