
&CONTROL
    calculation   = 'vc-relax'
    restart_mode  = 'from_scratch'
    prefix        = 'Landau_1'
    pseudo_dir    = '/cluster/scratch/mnoe/QE/pps'
    outdir        = './'
    forc_conv_thr = 1.0d-7
    etot_conv_thr = 1.0d-7

/
&SYSTEM
    ibrav       = 0
    nat         = 32
    ntyp        = 2
    ecutwfc     = 120
    occupations = 'smearing'
    degauss     = 7.35d-4
    tot_charge  = -0.0
/
&ELECTRONS
    conv_thr    = 1.0d-8
    diagonalization = 'david'
/


&IONS
ion_dynamics = 'bfgs'
/

&CELL
cell_dynamics = 'bfgs'
cell_dofree = 'all'
/
CELL_PARAMETERS angstrom
        7.3236460686         0.0000000000         0.0000000000
        0.0000000000         7.7495899200         0.0000000000
        0.0000000000         0.0000000000         7.3236460686

ATOMIC_SPECIES
W 183.84 W_ONCV_LDA-4.0.upf
O 15.9994 O_ONCV_LDA-3.0.upf

ATOMIC_POSITIONS crystal
0.25089999299999993	0.281860003	0.250020016	 0 0 0
-0.25001998999999986	0.718139997	-0.749099958	 0 0 0
0.24910000699999996	0.218140012	0.7500200049999999	 0 0 0
0.750020016	0.781859972	0.750899993	 0 0 0
0.749099984	0.281860003	0.7499799949999999	 0 0 0
0.25002000499999993	0.718139997	0.749100007	 0 0 0
-0.24909995799999984	0.218140012	-0.75001999	 0 0 0
0.24997999499999995	0.781859972	0.249099984	 0 0 0
0.2509900259999999	0.00832	0.250710036	 0 0 0
-0.25071004500000005	0.991680023	-0.7490099730000002	 0 0 0
0.24900995699999995	0.491679992	0.750709997	 0 0 0
0.750710036	0.508319977	0.7509900429999999	 0 0 0
0.7490099640000001	0.00832	0.7492900199999999	 0 0 0
0.25070997999999994	0.991680023	0.749009974	 0 0 0
-0.24900997300000005	0.491679992	-0.7507100450000002	 0 0 0
0.24929000299999993	0.508319977	0.24900996400000003	 0 0 0
0.4996800069999999	0.251070017	0.6995400039999999	 0 0 0
0.49993999899999997	0.749309961	0.800459963	 0 0 0
-0.9996799590000001	0.24892998299999997	1.199540037	 0 0 0
6.00749999999889e-05	0.750689948	0.300460012	 0 0 0
0.5003199930000001	0.251070017	0.300460012	 0 0 0
0.500060001	0.749309961	1.199540037	 0 0 0
-0.0003199509999999889	0.24892998299999997	0.800459963	 0 0 0
-1.000059985	0.750689948	0.6995400039999999	 0 0 0
0.6995400369999999	0.249310007	2.000059969	 0 0 0
0.300459996	0.748929937	0.499679991	 0 0 0
0.800459963	0.25068999299999994	0.500060017	 0 0 0
0.19954001999999996	0.751069972	1.9996799749999998	 0 0 0
0.300459996	0.249310007	0.9999399409999999	 0 0 0
0.699540037	0.748929937	0.500320009	 0 0 0
0.19954002	0.25068999299999994	0.499939983	 0 0 0
0.800459963	0.751069972	1.000319935	 0 0 0

K_POINTS automatic
6 6 6 0 0 0
