
&CONTROL
    calculation   = 'vc-relax'
    restart_mode  = 'from_scratch'
    prefix        = 'Landau_24'
    pseudo_dir    = '/cluster/scratch/mnoe/QE/pps'
    outdir        = './'
    forc_conv_thr = 1.0d-7
    etot_conv_thr = 1.0d-7

/
&SYSTEM
    ibrav       = 0
    nat         = 32
    ntyp        = 2
    ecutwfc     = 120
    occupations = 'smearing'
    degauss     = 7.35d-4
    tot_charge  = -0.0
/
&ELECTRONS
    conv_thr    = 1.0d-8
    diagonalization = 'david'
/


&IONS
ion_dynamics = 'bfgs'
/

&CELL
cell_dynamics = 'bfgs'
cell_dofree = 'all'
/
CELL_PARAMETERS angstrom
        7.3236460686         0.0000000000         0.0000000000
        0.0000000000         7.7495899200         0.0000000000
        0.0000000000         0.0000000000         7.3236460686

ATOMIC_SPECIES
W 183.84 W_ONCV_LDA-4.0.upf
O 15.9994 O_ONCV_LDA-3.0.upf

ATOMIC_POSITIONS crystal
W 0.2389	0.28610398171343326	0.01048	 0 0 0
W 0.761100016	0.7138960182865667	0.989520045	 0 0 0
W 0.2611	0.2138960276629141	0.510479988	 0 0 0
W 0.738899984	0.7861039507134333	0.489520012	 0 0 0
W 0.761100016	0.28610398171343326	0.489520012	 0 0 0
W 0.2389	0.7138960182865667	0.510479988	 0 0 0
W 0.738899984	0.2138960276629141	0.989520045	 0 0 0
W 0.2611	0.7861039507134333	0.01048	 0 0 0
O 0.229530007	0.016350576382741636	0.00326	 0 0 0
O 0.770470009	0.9836494567398332	0.996739977	 0 0 0
O 0.270469993	0.4836494141176177	0.503260023	 0 0 0
O 0.729529991	0.5163505665045979	0.49674001	 0 0 0
O 0.770470009	0.016350576382741636	0.49674001	 0 0 0
O 0.229530007	0.9836494567398332	0.503260023	 0 0 0
O 0.729529991	0.4836494141176177	0.996739977	 0 0 0
O 0.270469993	0.5163505665045979	0.00326	 0 0 0
O 0.503030015	0.228990001	0.4714760134977245	 0 0 0
O 0.496969985	0.771009968	0.528523977871437	 0 0 0
O 0.996970018	0.271009968	0.971476028502036	 0 0 0
O 0.003030062	0.728990001	0.028524018998323318	 0 0 0
O 0.496969985	0.228990001	0.028524018998323318	 0 0 0
O 0.503030015	0.771009968	0.971476028502036	 0 0 0
O 0.003030062	0.271009968	0.528523977871437	 0 0 0
O 0.996970018	0.728990001	0.4714760134977245	 0 0 0
O 0.7214760588697604	0.245409992	0.74540004	 0 0 0
O 0.27852400449796405	0.754590054	0.254599993	 0 0 0
O 0.7785239654994012	0.254590008	0.245399958	 0 0 0
O 0.22147602987263468	0.745409977	0.75459996	 0 0 0
O 0.27852400449796405	0.245409992	0.75459996	 0 0 0
O 0.7214760588697604	0.754590054	0.245399958	 0 0 0
O 0.22147602987263468	0.254590008	0.254599993	 0 0 0
O 0.7785239654994012	0.745409977	0.74540004	 0 0 0

K_POINTS automatic
6 6 6 0 0 0
