&CONTROL
    calculation   = 'scf'
    restart_mode  = 'from_scratch'
    prefix        = 'Landau_39'
    pseudo_dir    = '/cluster/scratch/mnoe/QE/pps'
    outdir        = './'
/
&SYSTEM
    ibrav       = 0
    nat         = 32
    ntyp        = 2
    ecutwfc     = 120
    occupations = 'smearing'
    degauss     = 7.35d-4
    tot_charge  = -0.68
/
&ELECTRONS
    conv_thr    = 1.0d-8
    diagonalization = 'david'
/

CELL_PARAMETERS angstrom
   7.310917716   0.000000000   0.000000000
   0.000000000   7.608710781   0.000000000
   0.000000000   0.000000000   7.370318636

ATOMIC_SPECIES
W 183.84 W_ONCV_LDA-4.0.upf
O 15.9994 O_ONCV_LDA-3.0.upf

ATOMIC_POSITIONS crystal
W         0.231960000         0.281860003         0.017040000
W         0.768040033         0.718139997         0.982959956
W         0.268040000         0.218140012         0.517040012
W         0.731959967         0.781859972         0.482959988
W         0.768040033         0.281860003         0.482959988
W         0.231960000         0.718139997         0.517040012
W         0.731959967         0.218140012         0.982959956
W         0.268040000         0.781859972         0.017040000
O         0.216730001         0.008320000         0.005300000
O         0.783270032         0.991680023         0.994700022
O         0.283269999         0.491679992         0.505299978
O         0.716729968         0.508319977         0.494700022
O         0.783270032         0.008320000         0.494700022
O         0.216730001         0.991680023         0.505299978
O         0.716729968         0.491679992         0.994700022
O         0.283269999         0.508319977         0.005300000
O         0.504930013         0.215869991         0.449540004
O         0.495069987         0.784129963         0.550459963
O         0.995069987         0.284129994         0.949540037
O         0.004930019         0.715870006         0.050460012
O         0.495069987         0.215869991         0.050460012
O         0.504930013         0.784129963         0.949540037
O         0.004930019         0.284129994         0.550459963
O         0.995069987         0.715870006         0.449540004
O         0.699540037         0.242549998         0.742519945
O         0.300459996         0.757449956         0.257480022
O         0.800459963         0.257449986         0.242519978
O         0.199540020         0.742550014         0.757480055
O         0.300459996         0.242549998         0.757480055
O         0.699540037         0.757449956         0.242519978
O         0.199540020         0.257449986         0.257480022
O         0.800459963         0.742550014         0.742519945

K_POINTS automatic
6 6 6 0 0 0
