&CONTROL
    calculation   = 'scf'
    restart_mode  = 'from_scratch'
    prefix        = 'Landau_9'
    pseudo_dir    = '/cluster/scratch/mnoe/QE/pps'
    outdir        = './'
/
&SYSTEM
    ibrav       = 0
    nat         = 32
    ntyp        = 2
    ecutwfc     = 120
    occupations = 'smearing'
    degauss     = 7.35d-4
    tot_charge  = -1.0
/
&ELECTRONS
    conv_thr    = 1.0d-8
    diagonalization = 'david'
/

CELL_PARAMETERS angstrom
   7.432121718   0.000000044  -0.000000011
   0.000000054   7.668252107  -0.000000169
  -0.000000011  -0.000000157   7.432121743

ATOMIC_SPECIES
W 183.84 W_ONCV_LDA-4.0.upf
O 15.9994 O_ONCV_LDA-3.0.upf

ATOMIC_POSITIONS crystal
W 0.25	0.2746963231913568	0.0	
W 0.7499999619203479	0.7253036768086433	0.0	
W 0.25	0.22530369418862137	0.5	
W 0.7499999619203479	0.7746963659706827	0.5	
W 0.7499999619203479	0.2746963231913568	0.5	
W 0.25	0.7253036768086433	0.5	
W 0.7499999619203479	0.22530369418862137	0.0	
W 0.25	0.7746963659706827	0.0	
O 0.25	0.006368401170890668	0.0	
O 0.7499999619203479	0.993631571849566	0.0	
O 0.25	0.49363161462889193	0.5	
O 0.7499999619203479	0.506368428150434	0.5	
O 0.7499999619203479	0.006368401170890668	0.5	
O 0.25	0.993631571849566	0.5	
O 0.7499999619203479	0.49363161462889193	0.0	
O 0.25	0.506368428150434	0.0	
O 0.5	0.25	0.46705661063855436	
O 0.5	0.7500000206996739	0.5329434349007279	
O 0.0	0.25	0.9670566436385544	
O 0.0	0.7500000206996739	0.032943338722054454	
O 0.5	0.25	0.032943338722054454	
O 0.5	0.7500000206996739	0.9670566436385544	
O 0.0	0.25	0.5329434349007279	
O 0.0	0.7500000206996739	0.46705661063855436	
O 0.7170566031789242	0.25	0.7499999619203479	
O 0.28294335128179343	0.7500000206996739	0.25	
O 0.78294347298038	0.25	0.25	
O 0.21705662663855438	0.7500000206996739	0.7499999619203479	
O 0.28294335128179343	0.25	0.7499999619203479	
O 0.7170566031789242	0.7500000206996739	0.25	
O 0.21705662663855438	0.25	0.25	
O 0.78294347298038	0.7500000206996739	0.7499999619203479	

K_POINTS automatic
6 6 6 0 0 0
