
&CONTROL
    calculation   = 'vc-relax'
    restart_mode  = 'from_scratch'
    prefix        = 'Landau_14'
    pseudo_dir    = '/cluster/scratch/mnoe/QE/pps'
    outdir        = './'
    forc_conv_thr = 1.0d-7
    etot_conv_thr = 1.0d-7

/
&SYSTEM
    ibrav       = 0
    nat         = 32
    ntyp        = 2
    ecutwfc     = 120
    occupations = 'smearing'
    degauss     = 7.35d-4
    tot_charge  = -0.0
/
&ELECTRONS
    conv_thr    = 1.0d-8
    diagonalization = 'david'
/


&IONS
ion_dynamics = 'bfgs'
/

&CELL
cell_dynamics = 'bfgs'
cell_dofree = 'all'
/
CELL_PARAMETERS angstrom
        7.3236460686         0.0000000000         0.0000000000
        0.0000000000         7.7495899200         0.0000000000
        0.0000000000         0.0000000000         7.3236460686

ATOMIC_SPECIES
W 183.84 W_ONCV_LDA-4.0.upf
O 15.9994 O_ONCV_LDA-3.0.upf

ATOMIC_POSITIONS crystal
W 0.22484840359190592	0.2789036830223667	-0.0007202024923373407	 0 0 0
W 0.7507202028600322	0.7210963169776333	-0.025151561446197103	 0 0 0
W 0.2751515964080941	0.2210963329598069	0.49927979261299704	 0 0 0
W 0.7492797817928849	0.7789036824697486	0.4748484035919059	 0 0 0
W 0.7751515618138919	0.2789036830223667	0.500720207387003	 0 0 0
W 0.2492797926129971	0.7210963169776333	0.5251515964080941	 0 0 0
W 0.7248484228390252	0.2210963329598069	0.0007202185748099322	 0 0 0
W 0.25072020738700296	0.7789036824697486	0.025151577528669696	 0 0 0
O 0.22233813309269962	0.007514610764168914	-0.02006810371714454	 0 0 0
O 0.7700680831077013	-0.007514608389814718	-0.02766183264464127	 0 0 0
O 0.27766183264464134	0.4924853910575672	0.479931855027817	 0 0 0
O 0.7299318805680777	0.5075146083898148	0.47233814428050663	 0 0 0
O 0.7776618120351979	0.007514610764168914	0.520068133085138	 0 0 0
O 0.22993184384000995	-0.007514608389814718	0.5276618438324483	 0 0 0
O 0.722338151640581	0.4924853910575672	0.020068098822478984	 0 0 0
O 0.270068121897331	0.5075146083898148	0.027661827749975717	 0 0 0
O 0.5089012947859666	0.22017750393931143	0.4567687880229016	 0 0 0
O 0.5018249956412303	0.769138163837948	0.5432312113888275	 0 0 0
O -0.00890127241035246	0.2798224750835503	0.9567688210229016	 0 0 0
O -0.0018249851526611536	0.7308619202350511	0.04323120047623728	 0 0 0
O 0.4910987052140334	0.22017750393931143	0.04323120047623728	 0 0 0
O 0.4981750043587697	0.769138163837948	0.9567688210229016	 0 0 0
O 0.008901259824069538	0.2798224750835503	0.5432312113888275	 0 0 0
O 0.0018249725663782306	0.7308619202350511	0.4567687880229016	 0 0 0
O 0.7067688043259502	0.2691381221510674	0.748175011718844	 0 0 0
O 0.2932311962623206	0.7798225384468072	0.2589012947859666	 0 0 0
O 0.7932312271036053	0.23086185687179434	0.24817504980923588	 0 0 0
O 0.20676880402290163	0.7201775456261921	0.7589013021460408	 0 0 0
O 0.2932311962623206	0.2691381221510674	0.7518250148883495	 0 0 0
O 0.7067688043259502	0.7798225384468072	0.24109875066449962	 0 0 0
O 0.20676880402290163	0.23086185687179434	0.2518249956412303	 0 0 0
O 0.7932312271036053	0.7201775456261921	0.7410987244611527	 0 0 0

K_POINTS automatic
6 6 6 0 0 0
