&CONTROL
    calculation   = 'scf'
    restart_mode  = 'from_scratch'
    prefix        = 'Landau_11'
    pseudo_dir    = '/cluster/scratch/mnoe/QE/pps'
    outdir        = './'
/
&SYSTEM
    ibrav       = 0
    nat         = 16
    ntyp        = 2
    ecutwfc     = 120
    occupations = 'smearing'
    degauss     = 7.35d-4
    tot_charge  = -0.26
/
&ELECTRONS
    conv_thr    = 1.0d-8
    diagonalization = 'david'
/

CELL_PARAMETERS angstrom
   5.228215800   0.000000000   0.000000000
   0.000000000   5.228215800   0.000000000
   0.000000000   0.000000000   7.700009141

ATOMIC_SPECIES
W 183.84 W_ONCV_LDA-4.0.upf
O 15.9994 O_ONCV_LDA-3.0.upf

ATOMIC_POSITIONS crystal
W       0.24999999999997197	0.2499999999999501	0.21438553176021852	
W       0.7500000229999755	0.7500000229999908	0.7856144832387181	
W       0.7500000230000082	0.7500000230000212	0.28561448323978084	
W       0.24999999999996686	0.25000000000001577	0.714385516761282	
O      0.24999999999988098	0.2499999999999623	0.48460288977805066	
O      0.7500000229999967	0.7500000230001419	0.5153971102235843	
O      0.7500000229999436	0.7500000230000083	0.015397123221951583	
O      0.24999999999989816	0.25000000000002365	0.9846028897764121	
O       0.4687195216527453	0.531280432347223	0.25000000000001843	
O       0.5312804783589962	0.46871956764101713	0.7499999999999993	
O       0.03128046134737211	0.9687195676525672	0.2500000000000018	
O       0.9687194756411643	0.03128049535887961	0.7500000000000898	
O       0.9687195676526381	0.4687195216526217	0.25000000000006906	
O       0.03128049535898744	0.5312804783589857	0.7499999999999891	
O       0.5312804323473094	0.03128046134733159	0.24999999999994788	
O       0.46871956764117206	0.9687194756411431	0.7499999999998879	

K_POINTS automatic
9 9 6 0 0 0
