
&CONTROL
    calculation   = 'vc-relax'
    restart_mode  = 'from_scratch'
    prefix        = 'Landau_18'
    pseudo_dir    = '/cluster/scratch/mnoe/QE/pps'
    outdir        = './'
    forc_conv_thr = 1.0d-7
    etot_conv_thr = 1.0d-7

/
&SYSTEM
    ibrav       = 0
    nat         = 32
    ntyp        = 2
    ecutwfc     = 120
    occupations = 'smearing'
    degauss     = 7.35d-4
    tot_charge  = -0.0
/
&ELECTRONS
    conv_thr    = 1.0d-8
    diagonalization = 'david'
/


&IONS
ion_dynamics = 'bfgs'
/

&CELL
cell_dynamics = 'bfgs'
cell_dofree = 'all'
/
CELL_PARAMETERS angstrom
        7.3236460686         0.0000000000         0.0000000000
        0.0000000000         7.7495899200         0.0000000000
        0.0000000000         0.0000000000         7.3236460686

ATOMIC_SPECIES
W 183.84 W_ONCV_LDA-4.0.upf
O 15.9994 O_ONCV_LDA-3.0.upf

ATOMIC_POSITIONS crystal
W 0.21766223318959332	0.27805902017161427	-0.0009259746330051513	 0 0 0
W 0.7509259751057556	0.7219409798283857	-0.032337721859396276	 0 0 0
W 0.28233776681040673	0.2219409960911803	0.4990740190738534	 0 0 0
W 0.7490740051622806	0.7780590283182482	0.46766223318959327	 0 0 0
W 0.7823377223321468	0.27805902017161427	0.5009259809261466	 0 0 0
W 0.2490740190738534	0.7219409798283857	0.5323377668104067	 0 0 0
W 0.7176622579358894	0.2219409960911803	0.0009259953104699091	 0 0 0
W 0.2509259809261466	0.7780590283182482	0.03233774253686104	 0 0 0
O 0.21443474254775668	0.00728449955393146	-0.025801847636328694	 0 0 0
O 0.775801821138473	-0.007284503072618929	-0.035565213400253065	 0 0 0
O 0.2855652134002531	0.49271550507401496	0.47419809932147894	 0 0 0
O 0.724198132158957	0.507284503072619	0.46443475693208	 0 0 0
O 0.7855651869023974	0.00728449955393146	0.5258018853951775	 0 0 0
O 0.22419808493715565	-0.007284503072618929	0.5355652277845764	 0 0 0
O 0.7144347663950327	0.49271550507401496	0.025801841343187266	 0 0 0
O 0.2758018710108541	0.507284503072619	0.035565207107111634	 0 0 0
O 0.5114445218676712	0.2116567907791147	0.4588341548865878	 0 0 0
O 0.502346422967296	0.7746062149345047	0.5411658537856353	 0 0 0
O -0.011444493099024592	0.28834318225027894	0.9588341878865878	 0 0 0
O -0.0023464094819929115	0.7253939017307801	0.041165825755162214	 0 0 0
O 0.4885554781323287	0.2116567907791147	0.041165825755162214	 0 0 0
O 0.4976535770327039	0.7746062149345047	0.9588341878865878	 0 0 0
O 0.011444476916660833	0.28834318225027894	0.5411658537856353	 0 0 0
O 0.0023463932996291527	0.7253939017307801	0.4588341548865878	 0 0 0
O 0.7088341664190789	0.27460615705137237	0.7476535864956566	 0 0 0
O 0.2911658249086979	0.7883432680030378	0.2614445218676713	 0 0 0
O 0.7911658739903497	0.22539381597802127	0.24765363546901756	 0 0 0
O 0.2088341708865878	0.711656848662247	0.761444531330624	 0 0 0
O 0.2911658249086979	0.27460615705137237	0.7523464477135923	 0 0 0
O 0.7088341664190789	0.7883432680030378	0.23855553656864237	 0 0 0
O 0.2088341708865878	0.22539381597802127	0.2523464229672961	 0 0 0
O 0.7911658739903497	0.711656848662247	0.7385555028786249	 0 0 0

K_POINTS automatic
6 6 6 0 0 0
