
&CONTROL
    calculation   = 'vc-relax'
    restart_mode  = 'from_scratch'
    prefix        = 'Landau_7'
    pseudo_dir    = '/cluster/scratch/mnoe/QE/pps'
    outdir        = './'
    forc_conv_thr = 1.0d-7
    etot_conv_thr = 1.0d-7

/
&SYSTEM
    ibrav       = 0
    nat         = 32
    ntyp        = 2
    ecutwfc     = 120
    occupations = 'smearing'
    degauss     = 7.35d-4
    tot_charge  = -0.0
/
&ELECTRONS
    conv_thr    = 1.0d-8
    diagonalization = 'david'
/


&IONS
ion_dynamics = 'bfgs'
/

&CELL
cell_dynamics = 'bfgs'
cell_dofree = 'all'
/
CELL_PARAMETERS angstrom
        7.3236460686         0.0000000000         0.0000000000
        0.0000000000         7.7495899200         0.0000000000
        0.0000000000         0.0000000000         7.3236460686

ATOMIC_SPECIES
W 183.84 W_ONCV_LDA-4.0.upf
O 15.9994 O_ONCV_LDA-3.0.upf

ATOMIC_POSITIONS crystal
W 0.23742420179595297	0.28038184301118335	-0.00036010124616867034	 0 0 0
W 0.7503601014300161	0.7196181569888166	-0.012575780723098551	 0 0 0
W 0.26257579820404703	0.21961817247990345	0.4996398963064985	 0 0 0
W 0.7496398908964425	0.7803818272348743	0.48742420179595297	 0 0 0
W 0.762575780906946	0.28038184301118335	0.5003601036935015	 0 0 0
W 0.24963989630649855	0.7196181569888166	0.5125757982040471	 0 0 0
W 0.7374242114195125	0.21961817247990345	0.0003601092874049661	 0 0 0
W 0.2503601036935015	0.7803818272348743	0.012575788764334848	 0 0 0
O 0.2361690665463498	0.007917305382084457	-0.01003405185857227	 0 0 0
O 0.7600340415538506	-0.007917292694907348	-0.013830916322320636	 0 0 0
O 0.26383091632232064	0.4920826915287836	0.4899659275139085	 0 0 0
O 0.7399659402840388	0.5079172926949074	0.48616907214025334	 0 0 0
O 0.763830906017599	0.007917305382084457	0.510034066542569	 0 0 0
O 0.239965921920005	-0.007917292694907348	0.5138309219162241	 0 0 0
O 0.7361690758202905	0.4920826915287836	0.010034049411239492	 0 0 0
O 0.2600340609486655	0.5079172926949074	0.013830913874987858	 0 0 0
O 0.5044506473929833	0.23508875196965573	0.4531543960114508	 0 0 0
O 0.5009124978206151	0.759569074418974	0.5468455871944138	 0 0 0
O -0.00445063620517623	0.26491123754177515	0.9531544290114508	 0 0 0
O -0.0009124925763305768	0.7404309526175256	0.04684560623811864	 0 0 0
O 0.4955493526070167	0.23508875196965573	0.04684560623811864	 0 0 0
O 0.49908750217938486	0.759569074418974	0.9531544290114508	 0 0 0
O 0.004450629912034769	0.26491123754177515	0.5468455871944138	 0 0 0
O 0.0009124862831891153	0.7404309526175256	0.4531543960114508	 0 0 0
O 0.7031544206629752	0.2595690610755337	0.749087505859422	 0 0 0
O 0.2968455961311603	0.7649112617234035	0.2544506473929833	 0 0 0
O 0.7968455950518026	0.24043092843589717	0.24908752490461794	 0 0 0
O 0.20315441201145082	0.735088765313096	0.7544506510730205	 0 0 0
O 0.2968455961311603	0.2595690610755337	0.7509125074441748	 0 0 0
O 0.7031544206629752	0.7649112617234035	0.2455493753322498	 0 0 0
O 0.20315441201145082	0.24043092843589717	0.25091249782061514	 0 0 0
O 0.7968455950518026	0.735088765313096	0.7455493622305763	 0 0 0

K_POINTS automatic
6 6 6 0 0 0
