
&CONTROL
    calculation   = 'vc-relax'
    restart_mode  = 'from_scratch'
    prefix        = 'Landau_10'
    pseudo_dir    = '/cluster/scratch/mnoe/QE/pps'
    outdir        = './'
    forc_conv_thr = 1.0d-7
    etot_conv_thr = 1.0d-7

/
&SYSTEM
    ibrav       = 0
    nat         = 32
    ntyp        = 2
    ecutwfc     = 120
    occupations = 'smearing'
    degauss     = 7.35d-4
    tot_charge  = -0.0
/
&ELECTRONS
    conv_thr    = 1.0d-8
    diagonalization = 'david'
/


&IONS
ion_dynamics = 'bfgs'
/

&CELL
cell_dynamics = 'bfgs'
cell_dofree = 'all'
/
CELL_PARAMETERS angstrom
        7.3236460686         0.0000000000         0.0000000000
        0.0000000000         7.7495899200         0.0000000000
        0.0000000000         0.0000000000         7.3236460686

ATOMIC_SPECIES
W 183.84 W_ONCV_LDA-4.0.upf
O 15.9994 O_ONCV_LDA-3.0.upf

ATOMIC_POSITIONS crystal
W 0.245380002	0.28276503604060005	0.00437	 0 0 0
W 0.754620015	0.7172349639594	0.995630015	 0 0 0
W 0.254620015	0.21723497776015	0.504369985	 0 0 0
W 0.745379985	0.7827650050406	0.495629982	 0 0 0
W 0.754620015	0.28276503604060005	0.495629982	 0 0 0
W 0.245380002	0.7172349639594	0.504369985	 0 0 0
W 0.745379985	0.21723497776015	0.995630015	 0 0 0
W 0.254620015	0.7827650050406	0.00437	 0 0 0
O 0.241469999	0.01003252907995	0.00136	 0 0 0
O 0.758530049	0.9899674960787	0.998640008	 0 0 0
O 0.258530017	0.48996746260025004	0.501359992	 0 0 0
O 0.741469951	0.5100325088782	0.498640008	 0 0 0
O 0.758530049	0.01003252907995	0.498640008	 0 0 0
O 0.241469999	0.9899674960787	0.501359992	 0 0 0
O 0.741469951	0.48996746260025004	0.998640008	 0 0 0
O 0.258530017	0.5100325088782	0.00136	 0 0 0
O 0.50125998	0.241249988	0.454217881698	 0 0 0
O 0.49874002	0.758750012	0.54578209049875	 0 0 0
O 0.99874002	0.258750012	0.9542179108604	 0 0 0
O 0.001260042	0.741249958	0.0457821378198	 0 0 0
O 0.49874002	0.241249988	0.0457821378198	 0 0 0
O 0.50125998	0.758750012	0.9542179108604	 0 0 0
O 0.001260042	0.258750012	0.54578209049875	 0 0 0
O 0.99874002	0.741249958	0.454217881698	 0 0 0
O 0.70421791733635	0.248090004	0.748080045	 0 0 0
O 0.29578212213960003	0.75190995	0.251919987	 0 0 0
O 0.7957820878604	0.251909996	0.248080013	 0 0 0
O 0.20421789777795002	0.74809002	0.751919955	 0 0 0
O 0.29578212213960003	0.248090004	0.751919955	 0 0 0
O 0.70421791733635	0.75190995	0.248080013	 0 0 0
O 0.20421789777795002	0.251909996	0.251919987	 0 0 0
O 0.7957820878604	0.74809002	0.748080045	 0 0 0

K_POINTS automatic
6 6 6 0 0 0
