
&CONTROL
    calculation   = 'vc-relax'
    restart_mode  = 'from_scratch'
    prefix        = 'Landau_38'
    pseudo_dir    = '/cluster/scratch/mnoe/QE/pps'
    outdir        = './'
    forc_conv_thr = 1.0d-7
    etot_conv_thr = 1.0d-7

/
&SYSTEM
    ibrav       = 0
    nat         = 32
    ntyp        = 2
    ecutwfc     = 120
    occupations = 'smearing'
    degauss     = 7.35d-4
    tot_charge  = -0.0
/
&ELECTRONS
    conv_thr    = 1.0d-8
    diagonalization = 'david'
/


&IONS
ion_dynamics = 'bfgs'
/

&CELL
cell_dynamics = 'bfgs'
cell_dofree = 'all'
/
CELL_PARAMETERS angstrom
        7.3236460686         0.0000000000         0.0000000000
        0.0000000000         7.3236460686         0.0000000000
        0.0000000000         0.0000000000         7.7495899200

ATOMIC_SPECIES
W 183.84 W_ONCV_LDA-4.0.upf
O 15.9994 O_ONCV_LDA-3.0.upf

ATOMIC_POSITIONS crystal
W 0.233519999         0.232669990         0.218119991 0 0 0
W 0.766479969         0.767330010         0.218119991 0 0 0
W 0.232669990         0.766479969         0.781880024 0 0 0
W 0.767330010         0.233519999         0.781880024 0 0 0
W 0.266480001         0.732670022         0.281880024 0 0 0
W 0.733519999         0.267329994         0.281880024 0 0 0
W 0.267329994         0.266480001         0.718119976 0 0 0
W 0.732670022         0.733519999         0.718119976 0 0 0
O 0.214890003         0.215059992         0.491670026 0 0 0
O 0.785109965         0.784940008         0.491670026 0 0 0
O 0.215059992         0.785109965         0.508329974 0 0 0
O 0.784940008         0.214890003         0.508329974 0 0 0
O 0.285109997         0.715060024         0.008329987 0 0 0
O 0.714890003         0.284940008         0.008329987 0 0 0
O 0.284940008         0.285109997         0.991670026 0 0 0
O 0.715060024         0.714890003         0.991670026 0 0 0
O 0.199410008         0.495210004         0.279680008 0 0 0
O 0.800589976         0.504789996         0.279680008 0 0 0
O 0.495210004         0.800589976         0.720319992 0 0 0
O 0.504789996         0.199410008         0.720319992 0 0 0
O 0.300589976         0.995209971         0.220319992 0 0 0
O 0.699409992         0.004790008         0.220319992 0 0 0
O 0.004790008         0.300589976         0.779680008 0 0 0
O 0.995209971         0.699409992         0.779680008 0 0 0
O 0.992680034         0.199410008         0.208060000 0 0 0
O 0.007319987         0.800589976         0.208060000 0 0 0
O 0.199410008         0.007319987         0.791939984 0 0 0
O 0.800589976         0.992680034         0.791939984 0 0 0
O 0.507319999         0.699409992         0.291940015 0 0 0
O 0.492680066         0.300589976         0.291940015 0 0 0
O 0.300589976         0.507319999         0.708060016 0 0 0
O 0.699409992         0.492680066         0.708060016 0 0 0

K_POINTS automatic
6 6 6 0 0 0
