
&CONTROL
    calculation   = 'vc-relax'
    restart_mode  = 'from_scratch'
    prefix        = 'Landau_23'
    pseudo_dir    = '/cluster/scratch/mnoe/QE/pps'
    outdir        = './'
    forc_conv_thr = 1.0d-7
    etot_conv_thr = 1.0d-7

/
&SYSTEM
    ibrav       = 0
    nat         = 32
    ntyp        = 2
    ecutwfc     = 120
    occupations = 'smearing'
    degauss     = 7.35d-4
    tot_charge  = -0.0
/
&ELECTRONS
    conv_thr    = 1.0d-8
    diagonalization = 'david'
/


&IONS
ion_dynamics = 'bfgs'
/

&CELL
cell_dynamics = 'bfgs'
cell_dofree = 'all'
/
CELL_PARAMETERS angstrom
        7.3236460686         0.0000000000         0.0000000000
        0.0000000000         7.7495899200         0.0000000000
        0.0000000000         0.0000000000         7.3236460686

ATOMIC_SPECIES
W 183.84 W_ONCV_LDA-4.0.upf
O 15.9994 O_ONCV_LDA-3.0.upf

ATOMIC_POSITIONS crystal
W 0.25	0.2727064121334003	0.0	 0 0 0
W 0.7499999513426668	0.7272935878665997	0.0	 0 0 0
W 0.25	0.22729360590768286	0.5	 0 0 0
W 0.7499999513426668	0.7727064754069835	0.5	 0 0 0
W 0.7499999513426668	0.2727064121334003	0.5	 0 0 0
W 0.25	0.7272935878665997	0.5	 0 0 0
W 0.7499999513426668	0.22729360590768286	0.0	 0 0 0
W 0.25	0.7727064754069835	0.0	 0 0 0
O 0.25	0.005826290385026965	0.0	 0 0 0
O 0.7499999513426668	0.9941736687522232	0.0	 0 0 0
O 0.25	0.49417373202580633	0.5	 0 0 0
O 0.7499999513426668	0.5058263312477768	0.5	 0 0 0
O 0.7499999513426668	0.005826290385026965	0.5	 0 0 0
O 0.25	0.9941736687522232	0.5	 0 0 0
O 0.7499999513426668	0.49417373202580633	0.0	 0 0 0
O 0.25	0.5058263312477768	0.0	 0 0 0
O 0.5	0.25	0.4719223347048195	 0 0 0
O 0.5	0.75000003061625	0.5280777326509302	 0 0 0
O 0.0	0.25	0.9719223677048194	 0 0 0
O 0.0	0.75000003061625	0.028077596144847356	 0 0 0
O 0.5	0.25	0.028077596144847356	 0 0 0
O 0.5	0.75000003061625	0.9719223677048194	 0 0 0
O 0.0	0.25	0.5280777326509302	 0 0 0
O 0.0	0.75000003061625	0.4719223347048195	 0 0 0
O 0.721922316006403	0.25	0.7499999513426668	 0 0 0
O 0.2780776166378472	0.75000003061625	0.25	 0 0 0
O 0.7780777813082633	0.25	0.25	 0 0 0
O 0.22192235070481947	0.75000003061625	0.7499999513426668	 0 0 0
O 0.2780776166378472	0.25	0.7499999513426668	 0 0 0
O 0.721922316006403	0.75000003061625	0.25	 0 0 0
O 0.22192235070481947	0.25	0.25	 0 0 0
O 0.7780777813082633	0.75000003061625	0.7499999513426668	 0 0 0

K_POINTS automatic
6 6 6 0 0 0
