
&CONTROL
    calculation   = 'vc-relax'
    restart_mode  = 'from_scratch'
    prefix        = 'Landau_40'
    pseudo_dir    = '/cluster/scratch/mnoe/QE/pps'
    outdir        = './'
    forc_conv_thr = 1.0d-7
    etot_conv_thr = 1.0d-7

/
&SYSTEM
    ibrav       = 0
    nat         = 16
    ntyp        = 2
    ecutwfc     = 120
    occupations = 'smearing'
    degauss     = 7.35d-4
    tot_charge  = -0.0
/
&ELECTRONS
    conv_thr    = 1.0d-8
    diagonalization = 'david'
/


&IONS
ion_dynamics = 'bfgs'
/

&CELL
cell_dynamics = 'bfgs'
cell_dofree = 'all'
/
CELL_PARAMETERS angstrom
        5.177959919             0.0             0.0
        0.0             5.177959919             0.0
        0.0             0.0            7.7496299744

ATOMIC_SPECIES
W 183.84 W_ONCV_LDA-4.0.upf
O 15.9994 O_ONCV_LDA-3.0.upf

ATOMIC_POSITIONS crystal
W     0.24999999999989808	0.24999999999981848	0.20454013921897643	 0 0 0
W     0.7500000229999106	0.7500000229999663	0.7954598757771565	 0 0 0
W     0.7500000230000298	0.7500000230000773	0.2954598757810213	 0 0 0
W     0.24999999999987946	0.25000000000005734	0.7045401242228437	 0 0 0
O W   0.2499999999995672	0.24999999999986292	0.46597134882927516	 0 0 0
O W   0.750000022999988	0.750000023000516	0.5340286511766698	 0 0 0
O W   0.750000022999795	0.7500000230000302	0.034028664170733025	 0 0 0
O W   0.24999999999962969	0.25000000000008604	0.9659713488233168	 0 0 0
O     0.5196265056463465	0.48037344835353807	0.250000000000067	 0 0 0
O     0.48037349439634963	0.5196265516036986	0.7499999999999978	 0 0 0
O     -0.01962652264591961	1.0196265516456988	0.25000000000000655	 0 0 0
O     1.0196264596042344	-0.01962648860407415	0.7500000000003266	 0 0 0
O     1.0196265516459566	0.5196265056458972	0.2500000000002512	 0 0 0
O     -0.019626488603682046	0.48037349439631155	0.7499999999999605	 0 0 0
O     0.48037344835385226	-0.019626522646066936	0.24999999999981043	 0 0 0
O     0.5196265516042619	1.019626459604157	0.7499999999995922	 0 0 0

K_POINTS automatic
6 6 6 0 0 0
