
&CONTROL
    calculation   = 'vc-relax'
    restart_mode  = 'from_scratch'
    prefix        = 'Landau_8'
    pseudo_dir    = '/cluster/scratch/mnoe/QE/pps'
    outdir        = './'
    forc_conv_thr = 1.0d-7
    etot_conv_thr = 1.0d-7

/
&SYSTEM
    ibrav       = 0
    nat         = 32
    ntyp        = 2
    ecutwfc     = 120
    occupations = 'smearing'
    degauss     = 7.35d-4
    tot_charge  = -0.0
/
&ELECTRONS
    conv_thr    = 1.0d-8
    diagonalization = 'david'
/


&IONS
ion_dynamics = 'bfgs'
/

&CELL
cell_dynamics = 'bfgs'
cell_dofree = 'all'
/
CELL_PARAMETERS angstrom
        7.3236460686         0.0000000000         0.0000000000
        0.0000000000         7.3236460686         0.0000000000
        0.0000000000         0.0000000000         7.7495899200

ATOMIC_SPECIES
W 183.84 W_ONCV_LDA-4.0.upf
O 15.9994 O_ONCV_LDA-3.0.upf

ATOMIC_POSITIONS crystal
W 0.246529997         0.246350012         0.218119991 0 0 0
W 0.753469987         0.753650037         0.218119991 0 0 0
W 0.246350012         0.753469987         0.781880024 0 0 0
W 0.753650037         0.246529997         0.781880024 0 0 0
W 0.253470003         0.746349996         0.281880024 0 0 0
W 0.746529980         0.253650004         0.281880024 0 0 0
W 0.253650004         0.253470003         0.718119976 0 0 0
W 0.746349996         0.746529980         0.718119976 0 0 0
O 0.242610000         0.242640003         0.491670026 0 0 0
O 0.757390049         0.757359965         0.491670026 0 0 0
O 0.242640003         0.757390049         0.508329974 0 0 0
O 0.757359965         0.242610000         0.508329974 0 0 0
O 0.257390016         0.742640003         0.008329987 0 0 0
O 0.742609984         0.257359981         0.008329987 0 0 0
O 0.257359981         0.257390016         0.991670026 0 0 0
O 0.742640003         0.742609984         0.991670026 0 0 0
O 0.199410008         0.498989998         0.256249988 0 0 0
O 0.800589976         0.501010002         0.256249988 0 0 0
O 0.498989998         0.800589976         0.743749997 0 0 0
O 0.501010002         0.199410008         0.743749997 0 0 0
O 0.300589976         0.998990031         0.243750012 0 0 0
O 0.699409992         0.001010001         0.243750012 0 0 0
O 0.001010001         0.300589976         0.756250003 0 0 0
O 0.998990031         0.699409992         0.756250003 0 0 0
O 0.998459976         0.199410008         0.241170000 0 0 0
O 0.001540005         0.800589976         0.241170000 0 0 0
O 0.199410008         0.001540005         0.758830031 0 0 0
O 0.800589976         0.998459976         0.758830031 0 0 0
O 0.501539992         0.699409992         0.258830000 0 0 0
O 0.498460041         0.300589976         0.258830000 0 0 0
O 0.300589976         0.501539992         0.741169969 0 0 0
O 0.699409992         0.498460041         0.741169969 0 0 0

K_POINTS automatic
6 6 6 0 0 0
