
&CONTROL
    calculation   = 'vc-relax'
    restart_mode  = 'from_scratch'
    prefix        = 'Landau_7'
    pseudo_dir    = '/cluster/scratch/mnoe/QE/pps'
    outdir        = './'
    forc_conv_thr = 1.0d-7
    etot_conv_thr = 1.0d-7

/
&SYSTEM
    ibrav       = 0
    nat         = 32
    ntyp        = 2
    ecutwfc     = 120
    occupations = 'smearing'
    degauss     = 7.35d-4
    tot_charge  = -0.0
/
&ELECTRONS
    conv_thr    = 1.0d-8
    diagonalization = 'david'
/


&IONS
ion_dynamics = 'bfgs'
/

&CELL
cell_dynamics = 'bfgs'
cell_dofree = 'all'
/
CELL_PARAMETERS angstrom
        7.3236460686         0.0000000000         0.0000000000
        0.0000000000         7.7495899200         0.0000000000
        0.0000000000         0.0000000000         7.3236460686

ATOMIC_SPECIES
W 183.84 W_ONCV_LDA-4.0.upf
O 15.9994 O_ONCV_LDA-3.0.upf

ATOMIC_POSITIONS crystal
W 0.25	0.2808842267012709	0.0	 0 0 0
W 0.7499999948131096	0.7191157732987291	0.0	 0 0 0
W 0.25	0.21911578862290976	0.5	 0 0 0
W 0.7499999948131096	0.780884205750871	0.5	 0 0 0
W 0.7499999948131096	0.2808842267012709	0.5	 0 0 0
W 0.25	0.7191157732987291	0.5	 0 0 0
W 0.7499999948131096	0.21911578862290976	0.0	 0 0 0
W 0.25	0.780884205750871	0.0	 0 0 0
O 0.25	0.008054169598175676	0.0	 0 0 0
O 0.7499999948131096	0.9919458465940307	0.0	 0 0 0
O 0.25	0.4919458256436308	0.5	 0 0 0
O 0.7499999948131096	0.5080541534059693	0.5	 0 0 0
O 0.7499999948131096	0.008054169598175676	0.5	 0 0 0
O 0.25	0.9919458465940307	0.5	 0 0 0
O 0.7499999948131096	0.4919458256436308	0.0	 0 0 0
O 0.25	0.5080541534059693	0.0	 0 0 0
O 0.5	0.25	0.4519259690415196	 0 0 0
O 0.5	0.7499999898627098	0.5480740086564417	 0 0 0
O 0.0	0.25	0.9519260020415197	 0 0 0
O 0.0	0.7499999898627098	0.04807403788142218	 0 0 0
O 0.5	0.25	0.04807403788142218	 0 0 0
O 0.5	0.7499999898627098	0.9519260020415197	 0 0 0
O 0.0	0.25	0.5480740086564417	 0 0 0
O 0.0	0.7499999898627098	0.4519259690415196	 0 0 0
O 0.7019259965304486	0.25	0.7499999948131096	 0 0 0
O 0.29807402577159	0.7499999898627098	0.25	 0 0 0
O 0.7980740138433322	0.25	0.25	 0 0 0
O 0.20192598504151965	0.7499999898627098	0.7499999948131096	 0 0 0
O 0.29807402577159	0.25	0.7499999948131096	 0 0 0
O 0.7019259965304486	0.7499999898627098	0.25	 0 0 0
O 0.20192598504151965	0.25	0.25	 0 0 0
O 0.7980740138433322	0.7499999898627098	0.7499999948131096	 0 0 0

K_POINTS automatic
6 6 6 0 0 0
