&CONTROL
    calculation   = 'scf'
    restart_mode  = 'from_scratch'
    prefix        = 'Landau_15'
    pseudo_dir    = '/cluster/scratch/mnoe/QE/pps'
    outdir        = './'
/
&SYSTEM
    ibrav       = 0
    nat         = 32
    ntyp        = 2
    ecutwfc     = 120
    occupations = 'smearing'
    degauss     = 7.35d-4
    tot_charge  = -1.0
/
&ELECTRONS
    conv_thr    = 1.0d-8
    diagonalization = 'david'
/

CELL_PARAMETERS angstrom
   7.478299518   0.000000000   0.000000000
   0.000000000   7.584188122   0.000000000
   0.000000000   0.000000000   7.489923371

ATOMIC_SPECIES
W 183.84 W_ONCV_LDA-4.0.upf
O 15.9994 O_ONCV_LDA-3.0.upf

ATOMIC_POSITIONS crystal
W 0.23960553039888127	0.27007875876237264	0.009815751044649396	
W 0.7603943974244114	0.7299212412376274	-0.00981573812179533	
W 0.2603944696011187	0.22992126015169173	0.5098157566632816	
W 0.7396054773255234	0.7700788490983733	0.4901842433367184	
W 0.7603943974244114	0.27007875876237264	0.4901842433367184	
W 0.23960553039888127	0.7299212412376274	0.5098157566632816	
W 0.7396054773255234	0.22992126015169173	-0.00981573812179533	
W 0.2603944696011187	0.7700788490983733	0.009815751044649396	
O 0.23082360093976828	0.005110439679916502	0.0030509172937337684	
O 0.7691763089039013	-0.005110498875271809	-0.0030509212267762972	
O 0.2691763900704202	0.4948895914607289	0.50305090268529	
O 0.7308235658460336	0.5051104988752718	0.4969490787732237	
O 0.7691763089039013	0.005110439679916502	0.4969490787732237	
O 0.23082360093976828	-0.005110498875271809	0.50305090268529	
O 0.7308235658460336	0.4948895914607289	-0.0030509212267762972	
O 0.2691763900704202	0.5051104988752718	0.0030509172937337684	
O 0.5028430323966171	0.23032916917077312	0.47834746420701046	
O 0.49715696760338285	0.7696708829681433	0.5216526319571191	
O -0.0028430509381034913	0.2696708139733302	0.9783474972070104	
O 0.0028430043034560833	0.7303292381655863	0.0216524421991824	
O 0.49715696760338285	0.23032916917077312	0.0216524421991824	
O 0.5028430323966171	0.7696708829681433	0.9783474972070104	
O 0.0028430043034560833	0.2696708139733302	0.5216526319571191	
O -0.0028430509381034913	0.7303292381655863	0.47834746420701046	
O 0.7283474306679134	0.24570736611007524	0.7456904543307509	
O 0.27165247316795677	0.7542927034466012	0.2543094830442166	
O 0.7716526945821517	0.25429263388992474	0.24569055347689286	
O 0.22834748020701048	0.7457074182489917	0.754309420419184	
O 0.27165247316795677	0.24570736611007524	0.754309420419184	
O 0.7283474306679134	0.7542927034466012	0.24569055347689286	
O 0.22834748020701048	0.25429263388992474	0.2543094830442166	
O 0.7716526945821517	0.7457074182489917	0.7456904543307509	

K_POINTS automatic
6 6 6 0 0 0
