
&CONTROL
    calculation   = 'vc-relax'
    restart_mode  = 'from_scratch'
    prefix        = 'Landau_12'
    pseudo_dir    = '/cluster/scratch/mnoe/QE/pps'
    outdir        = './'
    forc_conv_thr = 1.0d-7
    etot_conv_thr = 1.0d-7

/
&SYSTEM
    ibrav       = 0
    nat         = 32
    ntyp        = 2
    ecutwfc     = 120
    occupations = 'smearing'
    degauss     = 7.35d-4
    tot_charge  = -0.0
/
&ELECTRONS
    conv_thr    = 1.0d-8
    diagonalization = 'david'
/


&IONS
ion_dynamics = 'bfgs'
/

&CELL
cell_dynamics = 'bfgs'
cell_dofree = 'all'
/
CELL_PARAMETERS angstrom
        7.3236460686         0.0000000000         0.0000000000
        0.0000000000         7.7495899200         0.0000000000
        0.0000000000         0.0000000000         7.3236460686

ATOMIC_SPECIES
W 183.84 W_ONCV_LDA-4.0.upf
O 15.9994 O_ONCV_LDA-3.0.upf

ATOMIC_POSITIONS crystal
W 0.2319199063727775	0.27832358764637727	0.0030903845648398475	 0 0 0
W 0.7541198905594696	0.7216764123536227	-0.017873602835160183	 0 0 0
W 0.2680800936272225	0.22167642852852049	0.5030903837725378	 0 0 0
W 0.7458800810333859	0.7783235930682091	0.48212637057253777	 0 0 0
W 0.7680800606333859	0.27832358764637727	0.4969096162274622	 0 0 0
W 0.2458800936272225	0.7216764123536227	0.5178736294274622	 0 0 0
W 0.7319199109594696	0.22167642852852049	-0.0030903707648398783	 0 0 0
W 0.25411990637277754	0.7783235930682091	0.017873616635160152	 0 0 0
O 0.22735244821651462	0.007356575580186136	-0.010378530865019654	 0 0 0
O 0.7683084156181499	-0.007356577253039908	-0.016894535065019627	 0 0 0
O 0.2726475289984285	0.49264342816879186	0.4896214403499234	 0 0 0
O 0.7316915439882904	0.50735657725304	0.4831054517499234	 0 0 0
O 0.7726475007882904	0.007356575580186136	0.5103785462428314	 0 0 0
O 0.23169152299842846	-0.007356577253039908	0.5168945348428314	 0 0 0
O 0.7273524588181498	0.49264342816879186	0.010378526665019677	 0 0 0
O 0.2683084542165146	0.50735657725304	0.01689453086501965	 0 0 0
O 0.5061005260758873	0.22594146094494238	0.45818723535520567	 0 0 0
O 0.5000285164758873	0.7679534773616171	0.5418127704164216	 0 0 0
O -0.006100519905320644	0.27405852105505757	0.9581872683552057	 0 0 0
O -2.8520505320636658e-05	0.732046588257695	0.041812747747655914	 0 0 0
O 0.49389947392411265	0.22594146094494238	0.041812747747655914	 0 0 0
O 0.49997148352411264	0.7679534773616171	0.9581872683552057	 0 0 0
O 0.006100496075887335	0.27405852105505757	0.5418127704164216	 0 0 0
O 2.8496675887326826e-05	0.732046588257695	0.45818723535520567	 0 0 0
O 0.7081872483819431	0.2594041355810348	0.7474197147131755	 0 0 0
O 0.29181274584642947	0.768572181384125	0.25662370352648334	 0 0 0
O 0.7918127892147864	0.24059585243254974	0.24741975932648333	 0 0 0
O 0.2081872513552057	0.7314278844356399	0.7566236979131755	 0 0 0
O 0.29181274584642947	0.2594041355810348	0.7525802808525109	 0 0 0
O 0.7081872483819431	0.768572181384125	0.2433763354735167	 0 0 0
O 0.2081872513552057	0.24059585243254974	0.2525802796735167	 0 0 0
O 0.7918127892147864	0.7314278844356399	0.7433762976525109	 0 0 0

K_POINTS automatic
6 6 6 0 0 0
