
&CONTROL
    calculation   = 'vc-relax'
    restart_mode  = 'from_scratch'
    prefix        = 'Landau_13'
    pseudo_dir    = '/cluster/scratch/mnoe/QE/pps'
    outdir        = './'
    forc_conv_thr = 1.0d-7
    etot_conv_thr = 1.0d-7

/
&SYSTEM
    ibrav       = 0
    nat         = 32
    ntyp        = 2
    ecutwfc     = 120
    occupations = 'smearing'
    degauss     = 7.35d-4
    tot_charge  = -0.0
/
&ELECTRONS
    conv_thr    = 1.0d-8
    diagonalization = 'david'
/


&IONS
ion_dynamics = 'bfgs'
/

&CELL
cell_dynamics = 'bfgs'
cell_dofree = 'all'
/
CELL_PARAMETERS angstrom
        7.3236460686         0.0000000000         0.0000000000
        0.0000000000         7.7495899200         0.0000000000
        0.0000000000         0.0000000000         7.3236460686

ATOMIC_SPECIES
W 183.84 W_ONCV_LDA-4.0.upf
O 15.9994 O_ONCV_LDA-3.0.upf

ATOMIC_POSITIONS crystal
W 0.23135845291586202	0.2767610084974623	0.004348864616671107	 0 0 0
W 0.7554084272597004	0.7232389915025377	-0.018362121733328927	 0 0 0
W 0.268641547084138	0.22323900819656867	0.5043488646781348	 0 0 0
W 0.7445915272422668	0.7767610300124249	0.4816378503781348	 0 0 0
W 0.7686415051422668	0.2767610084974623	0.4956511353218652	 0 0 0
W 0.244591547084138	0.7232389915025377	0.5183621496218652	 0 0 0
W 0.7313584493597004	0.22323900819656867	-0.004348849666671141	 0 0 0
W 0.255408452915862	0.7767610300124249	0.01836213668332889	 0 0 0
O 0.22575894464898782	0.006930882679488128	-0.009396794882466543	 0 0 0
O 0.770127902594491	-0.006930895254140198	-0.016455799432466514	 0 0 0
O 0.274241032452677	0.4930691262608224	0.49060317571919826	 0 0 0
O 0.7298720405453534	0.5069308952541401	0.48354418806919824	 0 0 0
O 0.7742409937453534	0.006930882679488128	0.5093968088906007	 0 0 0
O 0.22987202595267697	-0.006930895254140198	0.5164557965406007	 0 0 0
O 0.725758949394491	0.4930691262608224	0.009396790332466569	 0 0 0
O 0.2701279511489878	0.5069308952541401	0.016455794882466544	 0 0 0
O 0.5061939159927682	0.22434994743530998	0.46200804882318425	 0 0 0
O 0.4996159055927682	0.7698629719768373	0.5379919740798403	 0 0 0
O -0.006193912824835194	0.27565003306469	0.9620080818231843	 0 0 0
O 0.0003840865251648149	0.7301371109470777	0.03799191974394625	 0 0 0
O 0.4938060840072318	0.22434994743530998	0.03799191974394625	 0 0 0
O 0.5003840944072317	0.7698629719768373	0.9620080818231843	 0 0 0
O 0.006193883492768202	0.27565003306469	0.5379919740798403	 0 0 0
O -0.0003841158572318072	0.7301371109470777	0.46200804882318425	 0 0 0
O 0.7120080530246564	0.25829358701535593	0.7469309089241507	 0 0 0
O 0.28799192407231883	0.7682256417690062	0.2569019053303123	 0 0 0
O 0.7879920011843371	0.24170640162252113	0.24693096578031232	 0 0 0
O 0.2120080648231843	0.7317744414261713	0.7569018907241507	 0 0 0
O 0.28799192407231883	0.25829358701535593	0.7530690683020624	 0 0 0
O 0.7120080530246564	0.7682256417690062	0.2430981369196877	 0 0 0
O 0.2120080648231843	0.24170640162252113	0.25306907646968774	 0 0 0
O 0.7879920011843371	0.7317744414261713	0.7430980865020624	 0 0 0

K_POINTS automatic
6 6 6 0 0 0
