&CONTROL
    calculation   = 'scf'
    restart_mode  = 'from_scratch'
    prefix        = 'Landau_5'
    pseudo_dir    = '/cluster/scratch/mnoe/QE/pps'
    outdir        = './'
/
&SYSTEM
    ibrav       = 0
    nat         = 32
    ntyp        = 2
    ecutwfc     = 120
    occupations = 'smearing'
    degauss     = 7.35d-4
    tot_charge  = -1.0
/
&ELECTRONS
    conv_thr    = 1.0d-8
    diagonalization = 'david'
/

CELL_PARAMETERS angstrom
   7.348110052   0.000000000   0.000000000
   0.000000000   7.721653126   0.000000000
   0.000000000   0.000000000   7.351625577

ATOMIC_SPECIES
W 183.84 W_ONCV_LDA-4.0.upf
O 15.9994 O_ONCV_LDA-3.0.upf

ATOMIC_POSITIONS crystal
W 0.245380002	0.2803742904097249	0.00437	
W 0.754620007102464	0.7196257095902752	0.995630015	
W 0.254620015	0.2196257250838711	0.504369985	
W 0.7453799771024641	0.7803742747112007	0.495629982	
W 0.754620007102464	0.2803742904097249	0.495629982	
W 0.245380002	0.7196257095902752	0.504369985	
W 0.7453799771024641	0.2196257250838711	0.995630015	
W 0.254620015	0.7803742747112007	0.00437	
O 0.241469999	0.007915247829463904	0.00136	
O 0.758530041102464	0.9920847648050203	0.998640008	
O 0.258530017	0.4920847491064961	0.501359992	
O 0.7414699431024641	0.5079152351949797	0.498640008	
O 0.758530041102464	0.007915247829463904	0.498640008	
O 0.241469999	0.9920847648050203	0.501359992	
O 0.7414699431024641	0.4920847491064961	0.998640008	
O 0.258530017	0.5079152351949797	0.00136	
O 0.50125998	0.241249988	0.4531728636080464	
O 0.49874002	0.7587500194039399	0.5468271196806215	
O 0.99874002	0.258750012	0.9531728966080464	
O 0.001260042	0.74124996540394	0.04682713857126579	
O 0.49874002	0.241249988	0.04682713857126579	
O 0.50125998	0.7587500194039399	0.9531728966080464	
O 0.001260042	0.258750012	0.5468271196806215	
O 0.99874002	0.74124996540394	0.4531728636080464	
O 0.7031728882169145	0.248090004	0.7480800371024641	
O 0.2968271284944177	0.75190995740394	0.251919987	
O 0.7968271275781573	0.251909996	0.248080013	
O 0.20317287960804636	0.7480900274039399	0.751919947102464	
O 0.2968271284944177	0.248090004	0.751919947102464	
O 0.7031728882169145	0.75190995740394	0.248080013	
O 0.20317287960804636	0.251909996	0.251919987	
O 0.7968271275781573	0.7480900274039399	0.7480800371024641	

K_POINTS automatic
6 6 6 0 0 0
