
&CONTROL
    calculation   = 'vc-relax'
    restart_mode  = 'from_scratch'
    prefix        = 'Landau_37'
    pseudo_dir    = '/cluster/scratch/mnoe/QE/pps'
    outdir        = './'
    forc_conv_thr = 1.0d-7
    etot_conv_thr = 1.0d-7

/
&SYSTEM
    ibrav       = 0
    nat         = 32
    ntyp        = 2
    ecutwfc     = 120
    occupations = 'smearing'
    degauss     = 7.35d-4
    tot_charge  = -0.0
/
&ELECTRONS
    conv_thr    = 1.0d-8
    diagonalization = 'david'
/


&IONS
ion_dynamics = 'bfgs'
/

&CELL
cell_dynamics = 'bfgs'
cell_dofree = 'all'
/
CELL_PARAMETERS angstrom
        7.3236460686         0.0000000000         0.0000000000
        0.0000000000         7.7495899200         0.0000000000
        0.0000000000         0.0000000000         7.3236460686

ATOMIC_SPECIES
W 183.84 W_ONCV_LDA-4.0.upf
O 15.9994 O_ONCV_LDA-3.0.upf

ATOMIC_POSITIONS crystal
W 0.266040004	0.27790900515681016	-0.983119983	 0 0 0
W 0.7331199618914329	0.7220909948431898	-0.983960061	 0 0 0
W 0.233959996	0.22209101116247523	-0.483119999	 0 0 0
W 0.7668800288914329	0.7779090460546589	-0.483959996	 0 0 0
W 0.7339600398914329	0.27790900515681016	-0.516880001	 0 0 0
W 0.266880001	0.7220909948431898	-0.5160400039999999	 0 0 0
W 0.7660399498914329	0.22209101116247523	-1.0168800500000001	 0 0 0
W 0.233119999	0.7779090460546589	-1.016039971	 0 0 0
O 0.284189987	0.007248163700836082	-0.965980001	 0 0 0
O 0.7159799798914329	0.9927518215941695	-0.96580998	 0 0 0
O 0.215809996	0.49275186249201836	-0.46598000100000003	 0 0 0
O 0.7840200098914328	0.5072481784058305	-0.465809996	 0 0 0
O 0.7158099588914328	0.007248163700836082	-0.5340199990000001	 0 0 0
O 0.284019999	0.9927518215941695	-0.534189987	 0 0 0
O 0.7841899658914329	0.49275186249201836	-1.0340200309999998	 0 0 0
O 0.215980001	0.5072481784058305	-1.034189987	 0 0 0
O 0.492869981	0.290840007	-0.5408800536013859	 0 0 0
O 0.504670018	0.7210999697892817	-0.45911988686219435	 0 0 0
O 0.007130027	0.209159993	-1.040880053601386	 0 0 0
O 0.995329982	0.7789000697892816	-0.9591199513386064	 0 0 0
O 0.507130019	0.290840007	-0.9591199513386064	 0 0 0
O 0.495330015	0.7210999697892817	-1.040880053601386	 0 0 0
O 0.992869981	0.209159993	-0.45911988686219435	 0 0 0
O 0.004669994	0.7789000697892816	-0.5408800536013859	 0 0 0
O 0.7091198919707614	0.221099996	-0.2546700151085671	 0 0 0
O 0.29088003249281885	0.7091600127892816	-0.757130019	 0 0 0
O 0.7908801182463727	0.278899988	-0.754670018	 0 0 0
O 0.20911993039861396	0.7908400267892817	-0.2571300481085671	 0 0 0
O 0.29088003249281885	0.221099996	-1.245330003108567	 0 0 0
O 0.7091198919707614	0.7091600127892816	-0.742869981	 0 0 0
O 0.20911993039861396	0.278899988	-0.745330015	 0 0 0
O 0.7908801182463727	0.7908400267892817	-1.2428700021085672	 0 0 0

K_POINTS automatic
6 6 6 0 0 0
