&CONTROL
    calculation   = 'scf'
    restart_mode  = 'from_scratch'
    prefix        = 'Landau_16'
    pseudo_dir    = '/cluster/scratch/mnoe/QE/pps'
    outdir        = './'
/
&SYSTEM
    ibrav       = 0
    nat         = 32
    ntyp        = 2
    ecutwfc     = 120
    occupations = 'smearing'
    degauss     = 7.35d-4
    tot_charge  = -0.2
/
&ELECTRONS
    conv_thr    = 1.0d-8
    diagonalization = 'david'
/

CELL_PARAMETERS angstrom
   7.486083726   0.000000000   0.000000000
   0.000000000   7.597979727   0.000000000
   0.000000000   0.000000000   7.491079331

ATOMIC_SPECIES
W 183.84 W_ONCV_LDA-4.0.upf
O 15.9994 O_ONCV_LDA-3.0.upf

ATOMIC_POSITIONS crystal
W 0.24027908813239243	0.2694599554539269	0.004517422355374643	
W 0.7550662076738575	0.7305400445460731	-0.009446470430561318	
W 0.2597209118676076	0.23054006366572147	0.5045174240872078	
W 0.7449336635613987	0.7694600521630337	0.49055351411616166	
W 0.7597208378269378	0.2694599554539269	0.49548257591279216	
W 0.24493372401384186	0.7305400445460731	0.5094464858838383	
W 0.7402790334083184	0.23054006366572147	-0.004517413163338971	
W 0.25506627598615816	0.7694600521630337	0.00944647962259699	
O 0.2356364390880648	0.004941859307193182	-0.0023766019358601597	
O 0.7629167273032204	-0.004941922819813864	-0.006716844195379355	
O 0.2643635501212854	0.4950581738892929	0.4976233832769527	
O 0.7370831399354991	0.5049419228198139	0.4932831514084304	
O 0.7643634744819998	0.004941859307193182	0.5023766056659605	
O 0.2370831828031792	-0.004941922819813864	0.5067168375344828	
O 0.7356363927567198	0.4950581738892929	0.0023765991382840956	
O 0.26291680640617093	0.5049419228198139	0.0067168413978032915	
O 0.5030440303732662	0.23499033907455988	0.47986056005023914	
O 0.49899952827393873	0.762974146941993	0.5201395428981646	
O -0.0030440349026765057	0.2650096489358283	0.9798605930502391	
O 0.0010004604025375913	0.7370259787529799	0.0201393405995999	
O 0.49695596962673383	0.23499033907455988	0.0201393405995999	
O 0.5010004717260612	0.762974146941993	0.9798605930502391	
O 0.003044010390579878	0.2650096489358283	0.5201395428981646	
O -0.0010004849146342187	0.7370259787529799	0.47986056005023914	
O 0.7298605230162131	0.2516106004073168	0.7476086835711556	
O 0.270139374035383	0.7577173789121868	0.2537394220524648	
O 0.7701396088125423	0.24838939559614656	0.24760877106683518	
O 0.22986057605023916	0.7422827470492219	0.7537393605342775	
O 0.270139374035383	0.2516106004073168	0.7523911956571737	
O 0.7298605230162131	0.7577173789121868	0.24626060392502738	
O 0.22986057605023916	0.24838939559614656	0.252391254910657	
O 0.7701396088125423	0.7422827470492219	0.7462605186940519	

K_POINTS automatic
6 6 6 0 0 0
