
&CONTROL
    calculation   = 'vc-relax'
    restart_mode  = 'from_scratch'
    prefix        = 'Landau_24'
    pseudo_dir    = '/cluster/scratch/mnoe/QE/pps'
    outdir        = './'
    forc_conv_thr = 1.0d-7
    etot_conv_thr = 1.0d-7

/
&SYSTEM
    ibrav       = 0
    nat         = 32
    ntyp        = 2
    ecutwfc     = 120
    occupations = 'smearing'
    degauss     = 7.35d-4
    tot_charge  = -0.0
/
&ELECTRONS
    conv_thr    = 1.0d-8
    diagonalization = 'david'
/


&IONS
ion_dynamics = 'bfgs'
/

&CELL
cell_dynamics = 'bfgs'
cell_dofree = 'all'
/
CELL_PARAMETERS angstrom
        7.3236460686         0.0000000000         0.0000000000
        0.0000000000         7.7495899200         0.0000000000
        0.0000000000         0.0000000000         7.3236460686

ATOMIC_SPECIES
W 183.84 W_ONCV_LDA-4.0.upf
O 15.9994 O_ONCV_LDA-3.0.upf

ATOMIC_POSITIONS crystal
W 0.24722814143970168	0.2724350076098981	0.002617533611906506	 0 0 0
W 0.752771805913159	0.7275649923901019	-0.0026175301658120874	 0 0 0
W 0.2527718585602983	0.2275650105213534	0.5026175351102085	 0 0 0
W 0.7472280938867889	0.7724350736786987	0.49738246488979154	 0 0 0
W 0.752771805913159	0.2724350076098981	0.49738246488979154	 0 0 0
W 0.24722814143970168	0.7275649923901019	0.5026175351102085	 0 0 0
W 0.7472280938867889	0.2275650105213534	-0.0026175301658120874	 0 0 0
W 0.2527718585602983	0.7724350736786987	0.002617533611906506	 0 0 0
O 0.2448862935839382	0.005752351743933201	0.0008135779449956716	 0 0 0
O 0.7551136489743563	-0.005752394500217443	-0.0008135789938070125	 0 0 0
O 0.2551137040187787	0.4942476715685831	0.5008135740494106	 0 0 0
O 0.7448862508255916	0.5057523945002175	0.499186421006193	 0 0 0
O 0.7551136489743563	0.005752351743933201	0.499186421006193	 0 0 0
O 0.2448862935839382	-0.005752394500217443	0.5008135740494106	 0 0 0
O 0.7448862508255916	0.4942476715685831	-0.0008135789938070125	 0 0 0
O 0.2551137040187787	0.5057523945002175	0.0008135779449956716	 0 0 0
O 0.5007581419724313	0.24475444511220618	0.4725859721656084	 0 0 0
O 0.49924185802756876	0.7552455891040213	0.5274140981656953	 0 0 0
O -0.0007581469168275977	0.25524555039288804	0.9725860051656083	 0 0 0
O 0.0007581344809216221	0.7447544838233393	0.02741395615934592	 0 0 0
O 0.49924185802756876	0.24475444511220618	0.02741395615934592	 0 0 0
O 0.5007581419724313	0.7552455891040213	0.9725860051656083	 0 0 0
O 0.0007581344809216221	0.25524555039288804	0.5274140981656953	 0 0 0
O -0.0007581469168275977	0.7447544838233393	0.4725859721656084	 0 0 0
O 0.7225859519343307	0.2488552976293534	0.7488507544215162	 0 0 0
O 0.2774139777343654	0.75114474123161	0.25114919547845777	 0 0 0
O 0.7774141482657214	0.2511447023706466	0.24885081426050476	 0 0 0
O 0.22258598816560837	0.7488553318455808	0.7511491453784317	 0 0 0
O 0.2774139777343654	0.2488552976293534	0.7511491453784317	 0 0 0
O 0.7225859519343307	0.75114474123161	0.24885081426050476	 0 0 0
O 0.22258598816560837	0.2511447023706466	0.25114919547845777	 0 0 0
O 0.7774141482657214	0.7488553318455808	0.7488507544215162	 0 0 0

K_POINTS automatic
6 6 6 0 0 0
