
&CONTROL
    calculation   = 'vc-relax'
    restart_mode  = 'from_scratch'
    prefix        = 'Landau_4'
    pseudo_dir    = '/cluster/scratch/mnoe/QE/pps'
    outdir        = './'
    forc_conv_thr = 1.0d-7
    etot_conv_thr = 1.0d-7

/
&SYSTEM
    ibrav       = 0
    nat         = 32
    ntyp        = 2
    ecutwfc     = 120
    occupations = 'smearing'
    degauss     = 7.35d-4
    tot_charge  = -0.0
/
&ELECTRONS
    conv_thr    = 1.0d-8
    diagonalization = 'david'
/


&IONS
ion_dynamics = 'bfgs'
/

&CELL
cell_dynamics = 'bfgs'
cell_dofree = 'all'
/
CELL_PARAMETERS angstrom
        7.3236460686         0.0000000000         0.0000000000
        0.0000000000         7.7495899200         0.0000000000
        0.0000000000         0.0000000000         7.3236460686

ATOMIC_SPECIES
W 183.84 W_ONCV_LDA-4.0.upf
O 15.9994 O_ONCV_LDA-3.0.upf

ATOMIC_POSITIONS crystal
W 0.24397330212425916	0.28068119788212575	0.0010301281882799489	 0 0 0
W 0.7513732968531566	0.7193188021178742	-0.005957867611720061	 0 0 0
W 0.25602669787574084	0.21931881750950682	0.5010301279241792	 0 0 0
W 0.7486266936777953	0.7806811790227364	0.49404212352417926	 0 0 0
W 0.7560266868777953	0.28068119788212575	0.4989698720758207	 0 0 0
W 0.24862669787574082	0.7193188021178742	0.5059578764758207	 0 0 0
W 0.7439733036531565	0.21931881750950682	-0.0010301235882799603	 0 0 0
W 0.2513733021242592	0.7806811790227364	0.00595787221172005	 0 0 0
O 0.24245081607217153	0.007998858526728712	-0.003459510288339883	 0 0 0
O 0.75610280520605	-0.007998843751013288	-0.005631511688339875	 0 0 0
O 0.2575491763328095	0.4920011373895973	0.49654048011664115	 0 0 0
O 0.7438971813294301	0.5079988437510133	0.4943684839166411	 0 0 0
O 0.7575491669294301	0.007998858526728712	0.5034595154142771	 0 0 0
O 0.2438971743328095	-0.007998843751013288	0.5056315116142771	 0 0 0
O 0.74245081960605	0.4920011373895973	0.0034595088883398913	 0 0 0
O 0.25610281807217156	0.5079988437510133	0.005631510288339883	 0 0 0
O 0.5020335086919624	0.24198048698164745	0.4524224144517352	 0 0 0
O 0.5000095054919624	0.7559844824538724	0.5475775654721405	 0 0 0
O -0.002033506635106881	0.2580195070183525	0.9524224474517352	 0 0 0
O -9.506835106878669e-06	0.7440155194192316	0.04757759058255197	 0 0 0
O 0.49796649130803755	0.24198048698164745	0.04757759058255197	 0 0 0
O 0.49999049450803756	0.7559844824538724	0.9524224474517352	 0 0 0
O 0.0020334986919624447	0.2580195070183525	0.5475775654721405	 0 0 0
O 9.498891962441986e-06	0.7440155194192316	0.4524224144517352	 0 0 0
O 0.7024224407939811	0.2531347118603449	0.7491399049043919	 0 0 0
O 0.2975775792821432	0.7561907171280416	0.25220790117549446	 0 0 0
O 0.7975775717382622	0.24686528414418324	0.24913991977549443	 0 0 0
O 0.20242243045173525	0.7438092848118799	0.7522078993043918	 0 0 0
O 0.2975775792821432	0.2531347118603449	0.7508600936175036	 0 0 0
O 0.7024224407939811	0.7561907171280416	0.24779211182450556	 0 0 0
O 0.20242243045173525	0.24686528414418324	0.2508600932245056	 0 0 0
O 0.7975775717382622	0.7438092848118799	0.7477920992175037	 0 0 0

K_POINTS automatic
6 6 6 0 0 0
