
&CONTROL
    calculation   = 'vc-relax'
    restart_mode  = 'from_scratch'
    prefix        = 'Landau_14'
    pseudo_dir    = '/cluster/scratch/mnoe/QE/pps'
    outdir        = './'
    forc_conv_thr = 1.0d-7
    etot_conv_thr = 1.0d-7

/
&SYSTEM
    ibrav       = 0
    nat         = 32
    ntyp        = 2
    ecutwfc     = 120
    occupations = 'smearing'
    degauss     = 7.35d-4
    tot_charge  = -0.0
/
&ELECTRONS
    conv_thr    = 1.0d-8
    diagonalization = 'david'
/


&IONS
ion_dynamics = 'bfgs'
/

&CELL
cell_dynamics = 'bfgs'
cell_dofree = 'all'
/
CELL_PARAMETERS angstrom
        7.3236460686         0.0000000000         0.0000000000
        0.0000000000         7.7495899200         0.0000000000
        0.0000000000         0.0000000000         7.3236460686

ATOMIC_SPECIES
W 183.84 W_ONCV_LDA-4.0.upf
O 15.9994 O_ONCV_LDA-3.0.upf

ATOMIC_POSITIONS crystal
W 0.256070024	0.28037747632960386	-0.993610055	 0 0 0
W 0.7436100470129746	0.7196225236703961	-0.993929976	 0 0 0
W 0.243929993	0.21962253916958524	-0.49360999	 0 0 0
W 0.7563899690129746	0.7803774918044656	-0.493929993	 0 0 0
W 0.7439299680129746	0.28037747632960386	-0.5063900100000001	 0 0 0
W 0.25639001	0.7196225236703961	-0.506070024	 0 0 0
W 0.7560699830129747	0.21962253916958524	-1.006389977	 0 0 0
W 0.24360999	0.7803774918044656	-1.006069991	 0 0 0
O 0.262939997	0.00792064845437041	-0.987129972	 0 0 0
O 0.7371299640129746	0.9920793540626588	-0.987060036	 0 0 0
O 0.237060003	0.49207936953752046	-0.487130004	 0 0 0
O 0.7628699880129747	0.5079206459373412	-0.48706000299999996	 0 0 0
O 0.7370600280129747	0.00792064845437041	-0.512870012	 0 0 0
O 0.262870012	0.9920793540626588	-0.5129399969999999	 0 0 0
O 0.7629399890129747	0.49207936953752046	-1.012869996	 0 0 0
O 0.237130004	0.5079206459373412	-1.0129399970000001	 0 0 0
O 0.497300041	0.265450015	-0.5469159513086325	 0 0 0
O 0.501770019	0.7390600404878364	-0.45308401621812755	 0 0 0
O 0.002699971	0.23455	-1.0469159513086326	 0 0 0
O 0.998229981	0.7609399744878363	-0.9530840306686619	 0 0 0
O 0.502699959	0.265450015	-0.9530840306686619	 0 0 0
O 0.498230014	0.7390600404878364	-1.0469159513086326	 0 0 0
O 0.997300041	0.23455	-0.45308401621812755	 0 0 0
O 0.00176999	0.7609399744878363	-0.5469159513086325	 0 0 0
O 0.7030840082051529	0.239060018	-0.2517699979870254	 0 0 0
O 0.29691594332160715	0.7345499924878364	-0.752699959	 0 0 0
O 0.7969159757688978	0.260939997	-0.751770019	 0 0 0
O 0.20308403269136743	0.7654500224878363	-0.2526999789870254	 0 0 0
O 0.29691594332160715	0.239060018	-1.2482299889870256	 0 0 0
O 0.7030840082051529	0.7345499924878364	-0.747300041	 0 0 0
O 0.20308403269136743	0.260939997	-0.748230014	 0 0 0
O 0.7969159757688978	0.7654500224878363	-1.2473000489870254	 0 0 0

K_POINTS automatic
6 6 6 0 0 0
