&CONTROL
    calculation   = 'scf'
    restart_mode  = 'from_scratch'
    prefix        = 'Landau_3'
    pseudo_dir    = '/cluster/scratch/mnoe/QE/pps'
    outdir        = './'
/
&SYSTEM
    ibrav       = 0
    nat         = 32
    ntyp        = 2
    ecutwfc     = 120
    occupations = 'smearing'
    degauss     = 7.35d-4
    tot_charge  = -0.52
/
&ELECTRONS
    conv_thr    = 1.0d-8
    diagonalization = 'david'
/

CELL_PARAMETERS angstrom
   7.346158011   0.000000000   0.000000000
   0.000000000   7.734283950   0.000000000
   0.000000000   0.000000000   7.346434175

ATOMIC_SPECIES
W 183.84 W_ONCV_LDA-4.0.upf
O 15.9994 O_ONCV_LDA-3.0.upf

ATOMIC_POSITIONS crystal
W        0.248610007	0.28287880192000003	0.00131	
W        0.751390009	0.71712119808	0.998690014	
W        0.251389976	0.21712121172999999	0.501309986	
W        0.748609991	0.78287877092	0.498690014	
W       0.751390009	0.28287880192000003	0.498690014	
W       0.248610007	0.71712119808	0.501309986	
W       0.748609991	0.21712121172999999	0.998690014	
W       0.251389976	0.78287877092	0.00131	
O        0.247439995	0.010247800089999998	0.00041	
O        0.752560005	0.9897522253400001	0.99958999	
O        0.252560021	0.48975219155	0.50041001	
O        0.747439995	0.51024778024	0.499590023	
O        0.752560005	0.010247800089999998	0.499590023	
O        0.247439995	0.9897522253400001	0.50041001	
O        0.747439995	0.48975219155	0.99958999	
O        0.252560021	0.51024778024	0.00041	
O    0.500379993	0.247369999	0.4548059076	
O    0.499620007	0.752630001	0.54519406525	
O    0.999620007	0.252630001	0.95480593628	
O    0.000380039	0.747370029	0.04519411236	
O   0.499620007	0.247369999	0.04519411236	
O   0.500379993	0.752630001	0.95480593628	
O   0.000380039	0.252630001	0.54519406525	
O   0.999620007	0.747370029	0.4548059076	
O   0.70480594357	0.249429995	0.749419983	
O   0.29519409672	0.750570021	0.250580017	
O   0.79519406228	0.250570005	0.249419934	
O   0.20480592369	0.74943001	0.750580017	
O   0.29519409672	0.249429995	0.750580017	
O   0.70480594357	0.750570021	0.249419934	
O   0.20480592369	0.250570005	0.250580017	
O   0.79519406228	0.74943001	0.749419983	

K_POINTS automatic
6 6 6 0 0 0
