&CONTROL
    calculation   = 'scf'
    restart_mode  = 'from_scratch'
    prefix        = 'Landau_31'
    pseudo_dir    = '/cluster/scratch/mnoe/QE/pps'
    outdir        = './'
/
&SYSTEM
    ibrav       = 0
    nat         = 32
    ntyp        = 2
    ecutwfc     = 120
    occupations = 'smearing'
    degauss     = 7.35d-4
    tot_charge  = -0.20
/
&ELECTRONS
    conv_thr    = 1.0d-8
    diagonalization = 'david'
/

CELL_PARAMETERS angstrom
   7.456191890   0.000000000   0.000000000
   0.000000000   7.555483521   0.000000000
   0.000000000   0.000000000   7.432376599

ATOMIC_SPECIES
W 183.84 W_ONCV_LDA-4.0.upf
O 15.9994 O_ONCV_LDA-3.0.upf

ATOMIC_POSITIONS crystal
W        0.23566	0.29238759184	0.01354	
W        0.764339984	0.7076124081599999	0.986459981	
W        0.264339984	0.20761240921	0.513540019	
W        0.735660016	0.7923875608400001	0.486460013	
W       0.764339984	0.29238759184	0.486460013	
W       0.23566	0.7076124081599999	0.513540019	
W       0.735660016	0.20761240921	0.986459981	
W       0.264339984	0.7923875608400001	0.01354	
O        0.22355	0.02824060093	0.00421	
O        0.776449951	0.97175944718	0.995789995	
O        0.276449983	0.47175938735000006	0.504210005	
O        0.723550049	0.52824061048	0.495789995	
O        0.776449951	0.02824060093	0.495789995	
O        0.22355	0.97175944718	0.504210005	
O        0.723550049	0.47175938735000006	0.995789995	
O        0.276449983	0.52824061048	0.00421	
O    0.503920029	0.222870006	0.5039543412	
O    0.496079971	0.777129979	0.49604568624999995	
O    0.996080003	0.277130009	1.00395432956	
O    0.003920078	0.722869991	-0.003954284279999998	
O   0.496079971	0.222870006	-0.003954284279999998	
O   0.503920029	0.777129979	1.00395432956	
O   0.003920078	0.277130009	0.49604568624999995	
O   0.996080003	0.722869991	0.5039543412	
O   0.75395440489	0.244080001	0.744059972	
O   0.24604570344000004	0.755920015	0.255940012	
O   0.7460456555599999	0.255919999	0.244060037	
O   0.25395435813	0.744080016	0.755940028	
O   0.24604570344000004	0.244080001	0.755940028	
O   0.75395440489	0.755920015	0.244060037	
O   0.25395435813	0.255919999	0.255940012	
O   0.7460456555599999	0.744080016	0.744059972	

K_POINTS automatic
6 6 6 0 0 0
