&CONTROL
    calculation   = 'scf'
    restart_mode  = 'from_scratch'
    prefix        = 'Landau_6'
    pseudo_dir    = '/cluster/scratch/mnoe/QE/pps'
    outdir        = './'
/
&SYSTEM
    ibrav       = 0
    nat         = 32
    ntyp        = 2
    ecutwfc     = 120
    occupations = 'smearing'
    degauss     = 7.35d-4
    tot_charge  = -0.6
/
&ELECTRONS
    conv_thr    = 1.0d-8
    diagonalization = 'david'
/

CELL_PARAMETERS angstrom
   7.397871692   0.000000000   0.000000000
   0.000000000   7.690789734   0.000000000
   0.000000000   0.000000000   7.398868563

ATOMIC_SPECIES
W 183.84 W_ONCV_LDA-4.0.upf
O 15.9994 O_ONCV_LDA-3.0.upf

ATOMIC_POSITIONS crystal
W 0.24635465804964715	0.2772099851702226	0.0016940333832654911	
W 0.7518998278776965	0.7227900148297773	-0.003542426411460494	
W 0.2536453419503528	0.22279003137464554	0.501694034032703	
W 0.7481001238355245	0.7772100020611377	0.49645756779356065	
W 0.7536453141851016	0.2772099851702226	0.49830596596729704	
W 0.2481001465051907	0.7227900148297773	0.5035424322064393	
W 0.7463546375281194	0.22279003137464554	-0.0016940299362521141	
W 0.2518998534948093	0.7772100020611377	0.003542429858473871	
O 0.2446136646580243	0.007053197240197443	-0.0008912257259475599	
O 0.7548437727387076	-0.0070532066824301855	-0.0025188165732672584	
O 0.255386331295482	0.49294681020848485	0.4991087687288573	
O 0.7451561774758122	0.5070532066824301	0.49748118177816136	
O 0.7553863029307499	0.007053197240197443	0.5008912271247352	
O 0.2451561935511922	-0.0070532066824301855	0.5025188140754311	
O 0.7446136472837699	0.49294681020848485	0.0008912246768565358	
O 0.2548438024023141	0.5070532066824301	0.0025188155241762343	
O 0.5011415113899748	0.24437137715295995	0.4609102125188397	
O 0.49962482310272704	0.7548652957282473	0.5390898054618117	
O -0.0011415130885036897	0.25562861835093564	0.9609102455188396	
O 0.00037517265095159683	0.7451347326573675	0.03908976022484996	
O 0.4988584886100252	0.24437137715295995	0.03908976022484996	
O 0.500375176897273	0.7548652957282473	0.9609102455188396	
O 0.0011415038964674544	0.25562861835093564	0.5390898054618117	
O -0.0003751818429878319	0.7451347326573675	0.4609102125188397	
O 0.7109102192560799	0.2506039751527438	0.7491032563391834	
O 0.28908976276326864	0.75289400771707	0.2514022832696743	
O 0.7890898301797034	0.24939602334855496	0.2491032891500632	
O 0.2109102285188397	0.7471060207684582	0.751402260200354	
O 0.28908976276326864	0.2506039751527438	0.7508966983714401	
O 0.7109102192560799	0.75289400771707	0.24859772647188527	
O 0.2109102285188397	0.24939602334855496	0.25089672059149637	
O 0.7890898301797034	0.7471060207684582	0.7485976945102695	

K_POINTS automatic
6 6 6 0 0 0
