
&CONTROL
    calculation   = 'vc-relax'
    restart_mode  = 'from_scratch'
    prefix        = 'Landau_11'
    pseudo_dir    = '/cluster/scratch/mnoe/QE/pps'
    outdir        = './'
    forc_conv_thr = 1.0d-7
    etot_conv_thr = 1.0d-7

/
&SYSTEM
    ibrav       = 0
    nat         = 32
    ntyp        = 2
    ecutwfc     = 120
    occupations = 'smearing'
    degauss     = 7.35d-4
    tot_charge  = -0.0
/
&ELECTRONS
    conv_thr    = 1.0d-8
    diagonalization = 'david'
/


&IONS
ion_dynamics = 'bfgs'
/

&CELL
cell_dynamics = 'bfgs'
cell_dofree = 'all'
/
CELL_PARAMETERS angstrom
        7.3236460686         0.0000000000         0.0000000000
        0.0000000000         7.7495899200         0.0000000000
        0.0000000000         0.0000000000         7.3236460686

ATOMIC_SPECIES
W 183.84 W_ONCV_LDA-4.0.upf
O 15.9994 O_ONCV_LDA-3.0.upf

ATOMIC_POSITIONS crystal
W 0.23422638323649864	0.27754546919016043	0.003679808521798629	 0 0 0
W 0.7545763615274388	0.7224545308098396	-0.0155371799282014	 0 0 0
W 0.26577361676350136	0.2224545472432504	0.5036798085738063	 0 0 0
W 0.7454235999742258	0.7775454826258981	0.48446279647380636	 0 0 0
W 0.7657735812742258	0.27754546919016043	0.49632019142619366	 0 0 0
W 0.24542361676350138	0.7224545308098396	0.5155372035261937	 0 0 0
W 0.7342263802274388	0.2224545472432504	-0.003679795871798658	 0 0 0
W 0.2545763832364986	0.7775454826258981	0.01553719257820137	 0 0 0
O 0.22948833777991276	0.007144593036489954	-0.007951134131317844	 0 0 0
O 0.7670313021953385	-0.007144600138118625	-0.013924137981317822	 0 0 0
O 0.27051164284457285	0.49285541329761895	0.49204884099316776	 0 0 0
O 0.7329686496922221	0.5071446001381186	0.48607585144316773	 0 0 0
O 0.770511610092222	0.007144593036489954	0.5079511459843544	 0 0 0
O 0.23296863734457282	-0.007144600138118625	0.5139241355343543	 0 0 0
O 0.7294883417953385	0.49285541329761895	0.007951130281317866	 0 0 0
O 0.2670313432799128	0.5071446001381186	0.013924134131317843	 0 0 0
O 0.5052410058400346	0.22829610936833922	0.4600898880811559	 0 0 0
O 0.49967499704003465	0.7668071278265546	0.5399101262214033	 0 0 0
O -0.0052410031594759335	0.27170387413166075	0.960089921081156	 0 0 0
O 0.0003249962905240741	0.7331929377244504	0.039910087783339133	 0 0 0
O 0.4947589941599654	0.22829610936833922	0.039910087783339133	 0 0 0
O 0.5003250029599653	0.7668071278265546	0.960089921081156	 0 0 0
O 0.005240978340034633	0.27170387413166075	0.5399101262214033	 0 0 0
O -0.00032502110996537534	0.7331929377244504	0.4600898880811559	 0 0 0
O 0.7100898967131709	0.257017650551455	0.7474030767819737	 0 0 0
O 0.2899100889842698	0.7654216945737744	0.2558400737410335	 0 0 0
O 0.7899101491559776	0.24298233983444095	0.2474031248910335	 0 0 0
O 0.21008990408115594	0.7345783712067604	0.7558400613819737	 0 0 0
O 0.2899100889842698	0.257017650551455	0.752596903947899	 0 0 0
O 0.7100898967131709	0.7654216945737744	0.24415996200896653	 0 0 0
O 0.21008990408115594	0.24298233983444095	0.2525969108589665	 0 0 0
O 0.7899101491559776	0.7345783712067604	0.7441599193478989	 0 0 0

K_POINTS automatic
6 6 6 0 0 0
