
&CONTROL
    calculation   = 'vc-relax'
    restart_mode  = 'from_scratch'
    prefix        = 'Landau_14'
    pseudo_dir    = '/cluster/scratch/mnoe/QE/pps'
    outdir        = './'
    forc_conv_thr = 1.0d-7
    etot_conv_thr = 1.0d-7

/
&SYSTEM
    ibrav       = 0
    nat         = 32
    ntyp        = 2
    ecutwfc     = 120
    occupations = 'smearing'
    degauss     = 7.35d-4
    tot_charge  = -0.0
/
&ELECTRONS
    conv_thr    = 1.0d-8
    diagonalization = 'david'
/


&IONS
ion_dynamics = 'bfgs'
/

&CELL
cell_dynamics = 'bfgs'
cell_dofree = 'all'
/
CELL_PARAMETERS angstrom
        7.3236460686         0.0000000000         0.0000000000
        0.0000000000         7.7495899200         0.0000000000
        0.0000000000         0.0000000000         7.3236460686

ATOMIC_SPECIES
W 183.84 W_ONCV_LDA-4.0.upf
O 15.9994 O_ONCV_LDA-3.0.upf

ATOMIC_POSITIONS crystal
W 0.24514924751947792	0.2763620890224406	0.004580683820836385	 0 0 0
W 0.7548507187980587	0.7236379109775595	-0.004580677790171153	 0 0 0
W 0.2548507524805221	0.2236379278041228	0.5045806864428648	 0 0 0
W 0.745149222751911	0.7763621146459075	0.49541931355713525	 0 0 0
W 0.7548507187980587	0.2763620890224406	0.49541931355713525	 0 0 0
W 0.24514924751947792	0.7236379109775595	0.5045806864428648	 0 0 0
W 0.745149222751911	0.2236379278041228	-0.004580677790171153	 0 0 0
W 0.2548507524805221	0.7763621146459075	0.004580683820836385	 0 0 0
O 0.24105101377189186	0.0068222051839610335	0.0014237614037424253	 0 0 0
O 0.7589489441551539	-0.006822220541793499	-0.001423763239162272	 0 0 0
O 0.25894898203286276	0.4931778050816735	0.5014237545864687	 0 0 0
O 0.7410509973948156	0.5068222205417935	0.49857623676083773	 0 0 0
O 0.7589489441551539	0.0068222051839610335	0.49857623676083773	 0 0 0
O 0.24105101377189186	-0.006822220541793499	0.5014237545864687	 0 0 0
O 0.7410509973948156	0.4931778050816735	-0.001423763239162272	 0 0 0
O 0.25894898203286276	0.5068222205417935	0.0014237614037424253	 0 0 0
O 0.5013267484517546	0.2408202789463608	0.4629834854299382	 0 0 0
O 0.4986732515482453	0.7591797373851336	0.5370165418466556	 0 0 0
O -0.001326757104448296	0.2591797131875541	0.9629835184299382	 0 0 0
O 0.0013267353416128388	0.7408203031439402	0.037016479426285116	 0 0 0
O 0.4986732515482453	0.2408202789463608	0.037016479426285116	 0 0 0
O 0.5013267484517546	0.7591797373851336	0.9629835184299382	 0 0 0
O 0.0013267353416128388	0.2591797131875541	0.5370165418466556	 0 0 0
O -0.001326757104448296	0.7408203031439402	0.4629834854299382	 0 0 0
O 0.7129834873783596	0.24799677085136845	0.7479888786876837	 0 0 0
O 0.2870164853450465	0.7520032536084138	0.25201109208730105	 0 0 0
O 0.7870165710716708	0.25200322914863155	0.24798892495588334	 0 0 0
O 0.21298350142993824	0.7479967871828628	0.7520110628622858	 0 0 0
O 0.2870164853450465	0.24799677085136845	0.7520110628622858	 0 0 0
O 0.7129834873783596	0.7520032536084138	0.24798892495588334	 0 0 0
O 0.21298350142993824	0.25200322914863155	0.25201109208730105	 0 0 0
O 0.7870165710716708	0.7479967871828628	0.7479888786876837	 0 0 0

K_POINTS automatic
6 6 6 0 0 0
