
&CONTROL
    calculation   = 'vc-relax'
    restart_mode  = 'from_scratch'
    prefix        = 'Landau_27'
    pseudo_dir    = '/cluster/scratch/mnoe/QE/pps'
    outdir        = './'
    forc_conv_thr = 1.0d-7
    etot_conv_thr = 1.0d-7

/
&SYSTEM
    ibrav       = 0
    nat         = 32
    ntyp        = 2
    ecutwfc     = 120
    occupations = 'smearing'
    degauss     = 7.35d-4
    tot_charge  = -0.0
/
&ELECTRONS
    conv_thr    = 1.0d-8
    diagonalization = 'david'
/


&IONS
ion_dynamics = 'bfgs'
/

&CELL
cell_dynamics = 'bfgs'
cell_dofree = 'all'
/
CELL_PARAMETERS angstrom
        7.3236460686         0.0000000000         0.0000000000
        0.0000000000         7.7495899200         0.0000000000
        0.0000000000         0.0000000000         7.3236460686

ATOMIC_SPECIES
W 183.84 W_ONCV_LDA-4.0.upf
O 15.9994 O_ONCV_LDA-3.0.upf

ATOMIC_POSITIONS crystal
W 0.25	0.27809629441918765	0.0	 0 0 0
W 0.7499999799934228	0.7219037055808124	0.0	 0 0 0
W 0.25	0.2219037218312234	0.5	 0 0 0
W 0.7499999799934228	0.778096302181931	0.5	 0 0 0
W 0.7499999799934228	0.27809629441918765	0.5	 0 0 0
W 0.25	0.7219037055808124	0.5	 0 0 0
W 0.7499999799934228	0.2219037218312234	0.0	 0 0 0
W 0.25	0.778096302181931	0.0	 0 0 0
O 0.25	0.007294654164391896	0.0	 0 0 0
O 0.7499999799934228	0.9927053425769755	0.0	 0 0 0
O 0.25	0.4927053503397189	0.5	 0 0 0
O 0.7499999799934228	0.5072946574230245	0.5	 0 0 0
O 0.7499999799934228	0.007294654164391896	0.5	 0 0 0
O 0.25	0.9927053425769755	0.5	 0 0 0
O 0.7499999799934228	0.4927053503397189	0.0	 0 0 0
O 0.25	0.5072946574230245	0.0	 0 0 0
O 0.5	0.25	0.45874301201729	 0 0 0
O 0.5	0.7500000037561662	0.5412569962462754	 0 0 0
O 0.0	0.25	0.95874304501729	 0 0 0
O 0.0	0.7500000037561662	0.041256968971199834	 0 0 0
O 0.5	0.25	0.041256968971199834	 0 0 0
O 0.5	0.7500000037561662	0.95874304501729	 0 0 0
O 0.0	0.25	0.5412569962462754	 0 0 0
O 0.0	0.7500000037561662	0.45874301201729	 0 0 0
O 0.7087430237603017	0.25	0.7499999799934228	 0 0 0
O 0.2912569679761327	0.7500000037561662	0.25	 0 0 0
O 0.7912570162528527	0.25	0.25	 0 0 0
O 0.20874302801729003	0.7500000037561662	0.7499999799934228	 0 0 0
O 0.2912569679761327	0.25	0.7499999799934228	 0 0 0
O 0.7087430237603017	0.7500000037561662	0.25	 0 0 0
O 0.20874302801729003	0.25	0.25	 0 0 0
O 0.7912570162528527	0.7500000037561662	0.7499999799934228	 0 0 0

K_POINTS automatic
6 6 6 0 0 0
