
&CONTROL
    calculation   = 'vc-relax'
    restart_mode  = 'from_scratch'
    prefix        = 'Landau_16'
    pseudo_dir    = '/cluster/scratch/mnoe/QE/pps'
    outdir        = './'
    forc_conv_thr = 1.0d-7
    etot_conv_thr = 1.0d-7

/
&SYSTEM
    ibrav       = 0
    nat         = 32
    ntyp        = 2
    ecutwfc     = 120
    occupations = 'smearing'
    degauss     = 7.35d-4
    tot_charge  = -0.0
/
&ELECTRONS
    conv_thr    = 1.0d-8
    diagonalization = 'david'
/


&IONS
ion_dynamics = 'bfgs'
/

&CELL
cell_dynamics = 'bfgs'
cell_dofree = 'all'
/
CELL_PARAMETERS angstrom
        7.3236460686         0.0000000000         0.0000000000
        0.0000000000         7.7495899200         0.0000000000
        0.0000000000         0.0000000000         7.3236460686

ATOMIC_SPECIES
W 183.84 W_ONCV_LDA-4.0.upf
O 15.9994 O_ONCV_LDA-3.0.upf

ATOMIC_POSITIONS crystal
        0.242600000         0.281860003         0.006990000 0 0 0
        0.757400032         0.718139997         0.993009977 0 0 0
        0.257400000         0.218140012         0.506990023 0 0 0
        0.742599968         0.781859972         0.493010010 0 0 0
        0.757400032         0.281860003         0.493010010 0 0 0
        0.242600000         0.718139997         0.506990023 0 0 0
        0.742599968         0.218140012         0.993009977 0 0 0
        0.257400000         0.781859972         0.006990000 0 0 0
        0.236350007         0.008320000         0.002170000 0 0 0
        0.763649993         0.991680023         0.997829951 0 0 0
        0.263649993         0.491679992         0.502170017 0 0 0
        0.736350007         0.508319977         0.497830016 0 0 0
        0.763649993         0.008320000         0.497830016 0 0 0
        0.236350007         0.991680023         0.502170017 0 0 0
        0.736350007         0.491679992         0.997829951 0 0 0
        0.263649993         0.508319977         0.002170000 0 0 0
        0.502019999         0.236000000         0.449540004 0 0 0
        0.497980001         0.764000016         0.550459963 0 0 0
        0.997979968         0.263999985         0.949540037 0 0 0
        0.002020001         0.736000015         0.050460012 0 0 0
        0.497980001         0.236000000         0.050460012 0 0 0
        0.502019999         0.764000016         0.949540037 0 0 0
        0.002020001         0.263999985         0.550459963 0 0 0
        0.997979968         0.736000015         0.449540004 0 0 0
        0.699540037         0.246939995         0.746929974 0 0 0
        0.300459996         0.753059990         0.253069993 0 0 0
        0.800459963         0.253059990         0.246930007 0 0 0
        0.199540020         0.746940041         0.753070026 0 0 0
        0.300459996         0.246939995         0.753070026 0 0 0
        0.699540037         0.753059990         0.246930007 0 0 0
        0.199540020         0.253059990         0.253069993 0 0 0
        0.800459963         0.746940041         0.746929974 0 0 0

K_POINTS automatic
6 6 6 0 0 0
