&CONTROL
    calculation   = 'scf'
    restart_mode  = 'from_scratch'
    prefix        = 'Landau_2'
    pseudo_dir    = '/cluster/scratch/mnoe/QE/pps'
    outdir        = './'
/
&SYSTEM
    ibrav       = 0
    nat         = 32
    ntyp        = 2
    ecutwfc     = 120
    occupations = 'smearing'
    degauss     = 7.35d-4
    tot_charge  = -1.0
/
&ELECTRONS
    conv_thr    = 1.0d-8
    diagonalization = 'david'
/

CELL_PARAMETERS angstrom
   7.350264635   0.000000000   0.000000000
   0.000000000   7.729736465   0.000000000
   0.000000000   0.000000000   7.350298230

ATOMIC_SPECIES
W 183.84 W_ONCV_LDA-4.0.upf
O 15.9994 O_ONCV_LDA-3.0.upf

ATOMIC_POSITIONS crystal
W 0.2495380235732836	0.280289170434983	0.00043625560198441764	
W 0.7504619676521932	0.719710829565017	-0.0004362550276353479	
W 0.2504619764267164	0.21971084508689223	0.5004362558517014	
W 0.7495380156477981	0.7802891556131164	0.49956374414829857	
W 0.7504619676521932	0.280289170434983	0.49956374414829857	
W 0.2495380235732836	0.719710829565017	0.5004362558517014	
W 0.7495380156477981	0.21971084508689223	-0.0004362550276353479	
W 0.2504619764267164	0.7802891556131164	0.00043625560198441764	
O 0.24914771559732304	0.007892058623988866	0.00013559632416594526	
O 0.7508522748290594	-0.007892046583369556	-0.00013559649896783543	
O 0.2508522840031298	0.49210793859476387	0.5001355956749017	
O 0.7491477084709319	0.5078920465833695	0.4998644035010322	
O 0.7508522748290594	0.007892058623988866	0.4998644035010322	
O 0.24914771559732304	-0.007892046583369556	0.5001355956749017	
O 0.7491477084709319	0.49210793859476387	-0.00013559649896783543	
O 0.2508522840031298	0.5078920465833695	0.00013559632416594526	
O 0.5001263569954052	0.24912574085203437	0.45338099869426807	
O 0.4998736430045948	0.7508742523506702	0.5466189855276159	
O -0.00012635781947126627	0.25087425839881466	0.953381031694268	
O 0.00012635574682027037	0.7491257348038899	0.04661900269322432	
O 0.4998736430045948	0.24912574085203437	0.04661900269322432	
O 0.5001263569954052	0.7508742523506702	0.953381031694268	
O 0.00012635574682027037	0.25087425839881466	0.5466189855276159	
O -0.00012635781947126627	0.7491257348038899	0.45338099869426807	
O 0.7033810228223885	0.2498092162715589	0.7498084590702527	
O 0.2966189929557276	0.7501907777052683	0.25019153257974297	
O 0.7966189938776203	0.2501907837284411	0.24980846904341747	
O 0.2033810146942681	0.7498092094742634	0.7501915242297386	
O 0.2966189929557276	0.2498092162715589	0.7501915242297386	
O 0.7033810228223885	0.7501907777052683	0.24980846904341747	
O 0.2033810146942681	0.2501907837284411	0.25019153257974297	
O 0.7966189938776203	0.7498092094742634	0.7498084590702527	

K_POINTS automatic
6 6 6 0 0 0
