&CONTROL
    calculation   = 'scf'
    restart_mode  = 'from_scratch'
    prefix        = 'Landau_17'
    pseudo_dir    = '/cluster/scratch/mnoe/QE/pps'
    outdir        = './'
/
&SYSTEM
    ibrav       = 0
    nat         = 32
    ntyp        = 2
    ecutwfc     = 120
    occupations = 'smearing'
    degauss     = 7.35d-4
    tot_charge  = -0.2
/
&ELECTRONS
    conv_thr    = 1.0d-8
    diagonalization = 'david'
/

CELL_PARAMETERS angstrom
   7.490459372   0.000000000   0.000000000
   0.000000000   7.560776117   0.000000000
   0.000000000   0.000000000   7.504245635

ATOMIC_SPECIES
W 183.84 W_ONCV_LDA-4.0.upf
O 15.9994 O_ONCV_LDA-3.0.upf

ATOMIC_POSITIONS crystal
W 0.2382196011187321	0.26850792619735564	0.011124517850602651	
W 0.7617803170809996	0.7314920738026444	-0.011124503204701371	
W 0.2617803988812679	0.23149209323858397	0.5111245242183858	
W 0.7382195409689266	0.7685080327114898	0.48887547578161417	
W 0.7617803170809996	0.26850792619735564	0.48887547578161417	
W 0.2382196011187321	0.7314920738026444	0.5111245242183858	
W 0.7382195409689266	0.23149209323858397	-0.011124503204701371	
W 0.2617803988812679	0.7685080327114898	0.011124517850602651	
O 0.22826674773173738	0.004682498303905369	0.003457706266231604	
O 0.7717331500910881	-0.004682568458641387	-0.0034577107236798033	
O 0.2717332420798096	0.4953175380554928	0.5034576897099954	
O 0.728266707958838	0.5046825684586413	0.49654228927632016	
O 0.7717331500910881	0.004682498303905369	0.49654228927632016	
O 0.22826674773173738	-0.004682568458641387	0.5034576897099954	
O 0.728266707958838	0.4953175380554928	-0.0034577107236798033	
O 0.2717332420798096	0.5046825684586413	0.003457706266231604	
O 0.5032221033828328	0.2277063917268762	0.48218845890127854	
O 0.4967778966171672	0.7722936693638958	0.517811654484735	
O -0.00322212439651729	0.27229358916977425	0.9821884919012785	
O 0.003222071543916894	0.7277064719209978	0.01781143289240672	
O 0.4967778966171672	0.2277063917268762	0.01781143289240672	
O 0.5032221033828328	0.7722936693638958	0.9821884919012785	
O 0.003222071543916894	0.27229358916977425	0.517811654484735	
O -0.00322212439651729	0.7277064719209978	0.48218845890127854	
O 0.7321884164903019	0.24513501492475195	0.7451158482415177	
O 0.2678114701236843	0.754865065906148	0.25488408078344543	
O 0.7678117254597719	0.254864985075248	0.24511596060714524	
O 0.23218847490127853	0.745135076015524	0.7548840098084085	
O 0.2678114701236843	0.24513501492475195	0.7548840098084085	
O 0.7321884164903019	0.754865065906148	0.24511596060714524	
O 0.23218847490127853	0.254864985075248	0.25488408078344543	
O 0.7678117254597719	0.745135076015524	0.7451158482415177	

K_POINTS automatic
6 6 6 0 0 0
