
&CONTROL
    calculation   = 'vc-relax'
    restart_mode  = 'from_scratch'
    prefix        = 'Landau_8'
    pseudo_dir    = '/cluster/scratch/mnoe/QE/pps'
    outdir        = './'
    forc_conv_thr = 1.0d-7
    etot_conv_thr = 1.0d-7

/
&SYSTEM
    ibrav       = 0
    nat         = 32
    ntyp        = 2
    ecutwfc     = 120
    occupations = 'smearing'
    degauss     = 7.35d-4
    tot_charge  = -0.0
/
&ELECTRONS
    conv_thr    = 1.0d-8
    diagonalization = 'david'
/


&IONS
ion_dynamics = 'bfgs'
/

&CELL
cell_dynamics = 'bfgs'
cell_dofree = 'all'
/
CELL_PARAMETERS angstrom
        7.3236460686         0.0000000000         0.0000000000
        0.0000000000         7.7495899200         0.0000000000
        0.0000000000         0.0000000000         7.3236460686

ATOMIC_SPECIES
W 183.84 W_ONCV_LDA-4.0.upf
O 15.9994 O_ONCV_LDA-3.0.upf

ATOMIC_POSITIONS crystal
0.2463	0.28258402943248	0.00349	 0 0 0
0.753700049	0.7174159705675199	0.996510002	 0 0 0
0.253700016	0.21741598460812	0.503489965	 0 0 0
0.746299951	0.78258399843248	0.496510002	 0 0 0
0.753700049	0.28258402943248	0.496510002	 0 0 0
0.2463	0.7174159705675199	0.503489965	 0 0 0
0.746299951	0.21741598460812	0.996510002	 0 0 0
0.253700016	0.78258399843248	0.00349	 0 0 0
0.243180001	0.009690023263959999	0.00109	 0 0 0
0.75681995	0.99031000146296	0.998910027	 0 0 0
0.256819999	0.49030996848020003	0.501090006	 0 0 0
0.74318005	0.50969000250256	0.498909994	 0 0 0
0.75681995	0.009690023263959999	0.498909994	 0 0 0
0.243180001	0.99031000146296	0.501090006	 0 0 0
0.74318005	0.49030996848020003	0.998910027	 0 0 0
0.256819999	0.50969000250256	0.00109	 0 0 0
0.501010016	0.243	0.4532823061584	 0 0 0
0.498989984	0.756999969	0.546717664999	 0 0 0
0.998989984	0.257	0.95328233608832	 0 0 0
0.001009941	0.743	0.04671771265584	 0 0 0
0.498989984	0.243	0.04671771265584	 0 0 0
0.501010016	0.756999969	0.95328233608832	 0 0 0
0.001009941	0.257	0.546717664999	 0 0 0
0.998989984	0.743	0.4532823061584	 0 0 0
0.70328234126908	0.248469997	0.748470001	 0 0 0
0.29671769691168	0.751529987	0.251529999	 0 0 0
0.79671766288832	0.251529987	0.248470066	 0 0 0
0.20328232222236	0.748469982	0.751529999	 0 0 0
0.29671769691168	0.248469997	0.751529999	 0 0 0
0.70328234126908	0.751529987	0.248470066	 0 0 0
0.20328232222236	0.251529987	0.251529999	 0 0 0
0.79671766288832	0.748469982	0.748470001	 0 0 0

K_POINTS automatic
6 6 6 0 0 0
