
&CONTROL
    calculation   = 'vc-relax'
    restart_mode  = 'from_scratch'
    prefix        = 'Landau_36'
    pseudo_dir    = '/cluster/scratch/mnoe/QE/pps'
    outdir        = './'
    forc_conv_thr = 1.0d-7
    etot_conv_thr = 1.0d-7

/
&SYSTEM
    ibrav       = 0
    nat         = 32
    ntyp        = 2
    ecutwfc     = 120
    occupations = 'smearing'
    degauss     = 7.35d-4
    tot_charge  = -0.0
/
&ELECTRONS
    conv_thr    = 1.0d-8
    diagonalization = 'david'
/


&IONS
ion_dynamics = 'bfgs'
/

&CELL
cell_dynamics = 'bfgs'
cell_dofree = 'all'
/
CELL_PARAMETERS angstrom
        7.3236460686         0.0000000000         0.0000000000
        0.0000000000         7.7495899200         0.0000000000
        0.0000000000         0.0000000000         7.3236460686

ATOMIC_SPECIES
W 183.84 W_ONCV_LDA-4.0.upf
O 15.9994 O_ONCV_LDA-3.0.upf

ATOMIC_POSITIONS crystal
0.233349992	0.28511812194616004	0.01572	 0 0 0
0.766650024	0.71488187805384	0.984279969	 0 0 0
0.266650024	0.21488188873654	0.515719998	 0 0 0
0.733349976	0.78511809094616	0.484280002	 0 0 0
0.766650024	0.28511812194616004	0.484280002	 0 0 0
0.233349992	0.71488187805384	0.515719998	 0 0 0
0.733349976	0.21488188873654	0.984279969	 0 0 0
0.266650024	0.78511809094616	0.01572	 0 0 0
0.219290006	0.014485104687819998	0.00489	 0 0 0
0.780709962	0.98551492608332	0.995109966	 0 0 0
0.280709994	0.4855148861609	0.504890034	 0 0 0
0.719290038	0.51448509176152	0.495109999	 0 0 0
0.780709962	0.014485104687819998	0.495109999	 0 0 0
0.219290006	0.98551492608332	0.504890034	 0 0 0
0.719290038	0.4855148861609	0.995109966	 0 0 0
0.280709994	0.51448509176152	0.00489	 0 0 0
0.504549987	0.218490008	0.4663803637128	 0 0 0
0.495450013	0.781509976	0.5336196219955	 0 0 0
0.995450046	0.281510007	0.96638038289744	 0 0 0
0.00454998	0.718489993	0.03361966495128	 0 0 0
0.495450013	0.218490008	0.03361966495128	 0 0 0
0.504549987	0.781509976	0.96638038289744	 0 0 0
0.00454998	0.281510007	0.5336196219955	 0 0 0
0.995450046	0.718489993	0.4663803637128	 0 0 0
0.71638040621086	0.243120003	0.743099962	 0 0 0
0.28361965010256	0.756879981	0.256900006	 0 0 0
0.7836196124974399	0.256879981	0.243099929	 0 0 0
0.21638038000062002	0.743119988	0.756900038	 0 0 0
0.28361965010256	0.243120003	0.756900038	 0 0 0
0.71638040621086	0.756879981	0.243099929	 0 0 0
0.21638038000062002	0.256879981	0.256900006	 0 0 0
0.7836196124974399	0.743119988	0.743099962	 0 0 0

K_POINTS automatic
6 6 6 0 0 0
