
&CONTROL
    calculation   = 'vc-relax'
    restart_mode  = 'from_scratch'
    prefix        = 'Landau_1'
    pseudo_dir    = '/cluster/scratch/mnoe/QE/pps'
    outdir        = './'
    forc_conv_thr = 1.0d-7
    etot_conv_thr = 1.0d-7

/
&SYSTEM
    ibrav       = 0
    nat         = 32
    ntyp        = 2
    ecutwfc     = 120
    occupations = 'smearing'
    degauss     = 7.35d-4
    tot_charge  = -0.0
/
&ELECTRONS
    conv_thr    = 1.0d-8
    diagonalization = 'david'
/


&IONS
ion_dynamics = 'bfgs'
/

&CELL
cell_dynamics = 'bfgs'
cell_dofree = 'all'
/
CELL_PARAMETERS angstrom
        7.3236460686         0.0000000000         0.0000000000
        0.0000000000         7.7495899200         0.0000000000
        0.0000000000         0.0000000000         7.3236460686

ATOMIC_SPECIES
W 183.84 W_ONCV_LDA-4.0.upf
O 15.9994 O_ONCV_LDA-3.0.upf

ATOMIC_POSITIONS crystal
W 0.2498845058933209	0.2814672948587458	0.00010906390049610441	 0 0 0
W 0.7501154919130483	0.7185327051412542	-0.00010906375690883698	 0 0 0
W 0.2501154941066791	0.21853272027172305	0.5001090639629253	 0 0 0
W 0.7498845039119495	0.7814672679032791	0.49989093603707463	 0 0 0
W 0.7501154919130483	0.2814672948587458	0.49989093603707463	 0 0 0
W 0.2498845058933209	0.7185327051412542	0.5001090639629253	 0 0 0
W 0.7498845039119495	0.21853272027172305	-0.00010906375690883698	 0 0 0
W 0.2501154941066791	0.7814672679032791	0.00010906390049610441	 0 0 0
O 0.24978692889933077	0.008213014655997216	3.3899081041486315e-05	 0 0 0
O 0.7502130687072649	-0.008212994395842372	-3.389912474195886e-05	 0 0 0
O 0.25021307100078244	0.491786978648691	0.5000338989187254	 0 0 0
O 0.749786927117733	0.5082129943958423	0.49996610087525806	 0 0 0
O 0.7502130687072649	0.008213014655997216	0.49996610087525806	 0 0 0
O 0.24978692889933077	-0.008212994395842372	0.5000338989187254	 0 0 0
O 0.749786927117733	0.491786978648691	-3.389912474195886e-05	 0 0 0
O 0.25021307100078244	0.5082129943958423	3.3899081041486315e-05	 0 0 0
O 0.5000315892488513	0.24978143521300858	0.450500252673567	 0 0 0
O 0.4999684107511487	0.7502185518376675	0.5494997186319039	 0 0 0
O -3.158945486781657e-05	0.25021856459970365	0.950500285673567	 0 0 0
O 3.158893670506759e-05	0.7497814224509725	0.04949975967330608	 0 0 0
O 0.4999684107511487	0.24978143521300858	0.04949975967330608	 0 0 0
O 0.5000315892488513	0.7502185518376675	0.950500285673567	 0 0 0
O 3.158893670506759e-05	0.25021856459970365	0.5494997186319039	 0 0 0
O -3.158945486781657e-05	0.7497814224509725	0.450500252673567	 0 0 0
O 0.7005002834555971	0.24995230406788974	0.7499521147675632	 0 0 0
O 0.2994997452389319	0.7500476831763171	0.25004788314493576	 0 0 0
O 0.799499720719405	0.2500476959321103	0.24995211726085437	 0 0 0
O 0.20050026867356702	0.7499522911185659	0.7500478810574347	 0 0 0
O 0.2994997452389319	0.24995230406788974	0.7500478810574347	 0 0 0
O 0.7005002834555971	0.7500476831763171	0.24995211726085437	 0 0 0
O 0.20050026867356702	0.2500476959321103	0.25004788314493576	 0 0 0
O 0.799499720719405	0.7499522911185659	0.7499521147675632	 0 0 0

K_POINTS automatic
6 6 6 0 0 0
