&CONTROL
    calculation   = 'scf'
    restart_mode  = 'from_scratch'
    prefix        = 'Landau_3'
    pseudo_dir    = '/cluster/scratch/mnoe/QE/pps'
    outdir        = './'
/
&SYSTEM
    ibrav       = 0
    nat         = 32
    ntyp        = 2
    ecutwfc     = 120
    occupations = 'smearing'
    degauss     = 7.35d-4
    tot_charge  = -0.2
/
&ELECTRONS
    conv_thr    = 1.0d-8
    diagonalization = 'david'
/

CELL_PARAMETERS angstrom
   7.335243497   0.000000000   0.000000000
   0.000000000   7.734689539   0.000000000
   0.000000000   0.000000000   7.335243497

ATOMIC_SPECIES
W 183.84 W_ONCV_LDA-4.0.upf
O 15.9994 O_ONCV_LDA-3.0.upf

ATOMIC_POSITIONS crystal
W 0.24461037219826556	0.28122650586193576	-0.00015432910550085884	
W 0.7501543291842926	0.7187734941380642	-0.00538962030989938	
W 0.25538962780173446	0.21877350934853004	0.4998456698456422	
W 0.7498456675270467	0.7812264813863747	0.49461037219826554	
W 0.7553896203886912	0.28122650586193576	0.5001543301543577	
W 0.24984566984564224	0.7187734941380642	0.5053896278017345	
W 0.7446103763226483	0.21877350934853004	0.00015433255174498528	
W 0.2501543301543578	0.7812264813863747	0.005389623756143506	
O 0.24407245709129277	0.00814741659232191	-0.004300307939388116	
O 0.7543003035230789	-0.008147398012103136	-0.005927535566708843	
O 0.25592753556670883	0.49185257751233585	0.4956996832202465	
O 0.7456996886931595	0.5081473980121032	0.49407245948868	
O 0.7559275311503996	0.00814741659232191	0.5043003142325295	
O 0.24569968082285928	-0.008147398012103136	0.5059275379640961	
O 0.7440724610658388	0.49185257751233585	0.004300306890531211	
O 0.25430031183514235	0.5081473980121032	0.005927534517851938	
O 0.5019074203112786	0.24360946512985246	0.4510890291477646	
O 0.5003910704945493	0.7541010233224175	0.5489109447976059	
O -0.0019074155165040986	0.2563905303750465	0.9510890621477647	
O -0.0003910682469988187	0.7458989711217967	0.0489109809591937	
O 0.49809257968872145	0.24360946512985246	0.0489109809591937	
O 0.49960892950545066	0.7541010233224175	0.9510890621477647	
O 0.001907412819443472	0.2563905303750465	0.5489109447976059	
O 0.0003910655499381922	0.7458989711217967	0.4510890291477646	
O 0.7010890585698465	0.25410102617522873	0.7496089310826094	
O 0.29891096748478296	0.7563905321671729	0.25190742031127855	
O 0.7989109481650583	0.2458989693296702	0.24960893924483626	
O 0.20108904514776466	0.7436094622770412	0.7519074218884373	
O 0.29891096748478296	0.25410102617522873	0.7503910746189321	
O 0.7010890585698465	0.7563905321671729	0.24809258942810705	
O 0.20108904514776466	0.2458989693296702	0.25039107049454934	
O 0.7989109481650583	0.7436094622770412	0.7480925838131042	

K_POINTS automatic
6 6 6 0 0 0
