
&CONTROL
    calculation   = 'vc-relax'
    restart_mode  = 'from_scratch'
    prefix        = 'Landau_29'
    pseudo_dir    = '/cluster/scratch/mnoe/QE/pps'
    outdir        = './'
    forc_conv_thr = 1.0d-7
    etot_conv_thr = 1.0d-7

/
&SYSTEM
    ibrav       = 0
    nat         = 16
    ntyp        = 2
    ecutwfc     = 120
    occupations = 'smearing'
    degauss     = 7.35d-4
    tot_charge  = -0.0
/
&ELECTRONS
    conv_thr    = 1.0d-8
    diagonalization = 'david'
/


&IONS
ion_dynamics = 'bfgs'
/

&CELL
cell_dynamics = 'bfgs'
cell_dofree = 'all'
/
CELL_PARAMETERS angstrom
        5.177959919             0.0             0.0
        0.0             5.177959919             0.0
        0.0             0.0            7.7496299744

ATOMIC_SPECIES
W 183.84 W_ONCV_LDA-4.0.upf
O 15.9994 O_ONCV_LDA-3.0.upf

ATOMIC_POSITIONS crystal
W     0.24999999999992611	0.2499999999998684	0.20827459845875793	 0 0 0
W     0.7500000229999352	0.7500000229999756	0.7917254165384384	 0 0 0
W     0.7500000230000216	0.7500000230000561	0.29172541654124046	 0 0 0
W     0.2499999999999126	0.2500000000000416	0.7082745834615617	 0 0 0
O W   0.24999999999968622	0.2499999999999006	0.4730384850512245	 0 0 0
O W   0.7500000229999914	0.7500000230003742	0.5269615149530856	 0 0 0
O W   0.7500000229998514	0.7500000230000219	0.026961527948781445	 0 0 0
O W   0.24999999999973152	0.2500000000000624	0.9730384850469046	 0 0 0
O     0.5003169599936012	0.4996829940063151	0.2500000000000486	 0 0 0
O     0.49968304003735353	0.5003170059626815	0.7499999999999983	 0 0 0
O     -0.0003169769932917163	1.0003170059931317	0.2500000000000047	 0 0 0
O     1.0003169139630699	-0.00031694296295375207	0.7500000000002368	 0 0 0
O     1.0003170059933186	0.5003169599932755	0.25000000000018213	 0 0 0
O     -0.00031694296266947947	0.4996830400373259	0.7499999999999714	 0 0 0
O     0.4996829940065429	-0.0003169769933985267	0.24999999999986255	 0 0 0
O     0.5003170059630899	1.0003169139630137	0.7499999999997043	 0 0 0

K_POINTS automatic
6 6 6 0 0 0
