
&CONTROL
    calculation   = 'vc-relax'
    restart_mode  = 'from_scratch'
    prefix        = 'Landau_29'
    pseudo_dir    = '/cluster/scratch/mnoe/QE/pps'
    outdir        = './'
    forc_conv_thr = 1.0d-7
    etot_conv_thr = 1.0d-7

/
&SYSTEM
    ibrav       = 0
    nat         = 32
    ntyp        = 2
    ecutwfc     = 120
    occupations = 'smearing'
    degauss     = 7.35d-4
    tot_charge  = -0.0
/
&ELECTRONS
    conv_thr    = 1.0d-8
    diagonalization = 'david'
/


&IONS
ion_dynamics = 'bfgs'
/

&CELL
cell_dynamics = 'bfgs'
cell_dofree = 'all'
/
CELL_PARAMETERS angstrom
        7.3236460686         0.0000000000         0.0000000000
        0.0000000000         7.7495899200         0.0000000000
        0.0000000000         0.0000000000         7.3236460686

ATOMIC_SPECIES
W 183.84 W_ONCV_LDA-4.0.upf
O 15.9994 O_ONCV_LDA-3.0.upf

ATOMIC_POSITIONS crystal
W 0.25	0.27031851886385255	0.0	 0 0 0
W 0.7499999386494495	0.7296814811361474	0.0	 0 0 0
W 0.25	0.22968149997055665	0.5	 0 0 0
W 0.7499999386494495	0.7703186067305443	0.5	 0 0 0
W 0.7499999386494495	0.27031851886385255	0.5	 0 0 0
W 0.25	0.7296814811361474	0.5	 0 0 0
W 0.7499999386494495	0.22968149997055665	0.0	 0 0 0
W 0.25	0.7703186067305443	0.0	 0 0 0
O 0.25	0.005175757441990521	0.0	 0 0 0
O 0.7499999386494495	0.9948241850354118	0.0	 0 0 0
O 0.25	0.4948242729021036	0.5	 0 0 0
O 0.7499999386494495	0.5051758149645882	0.5	 0 0 0
O 0.7499999386494495	0.005175757441990521	0.5	 0 0 0
O 0.25	0.9948241850354118	0.5	 0 0 0
O 0.7499999386494495	0.4948242729021036	0.0	 0 0 0
O 0.25	0.5051758149645882	0.0	 0 0 0
O 0.5	0.25	0.4777612035843376	 0 0 0
O 0.5	0.7500000425161413	0.5222388899511728	 0 0 0
O 0.0	0.25	0.9777612365843376	 0 0 0
O 0.0	0.7500000425161413	0.022238705052198843	 0 0 0
O 0.5	0.25	0.022238705052198843	 0 0 0
O 0.5	0.7500000425161413	0.9777612365843376	 0 0 0
O 0.0	0.25	0.5222388899511728	 0 0 0
O 0.0	0.7500000425161413	0.4777612035843376	 0 0 0
O 0.7277611713993778	0.25	0.7499999386494495	 0 0 0
O 0.27223873506511165	0.7500000425161413	0.25	 0 0 0
O 0.7722389513017234	0.25	0.25	 0 0 0
O 0.2277612195843376	0.7500000425161413	0.7499999386494495	 0 0 0
O 0.27223873506511165	0.25	0.7499999386494495	 0 0 0
O 0.7277611713993778	0.7500000425161413	0.25	 0 0 0
O 0.2277612195843376	0.25	0.25	 0 0 0
O 0.7722389513017234	0.7500000425161413	0.7499999386494495	 0 0 0

K_POINTS automatic
6 6 6 0 0 0
