&CONTROL
    calculation   = 'scf'
    restart_mode  = 'from_scratch'
    prefix        = 'Landau_9'
    pseudo_dir    = '/cluster/scratch/mnoe/QE/pps'
    outdir        = './'
/
&SYSTEM
    ibrav       = 0
    nat         = 32
    ntyp        = 2
    ecutwfc     = 120
    occupations = 'smearing'
    degauss     = 7.35d-4
    tot_charge  = -0.20
/
&ELECTRONS
    conv_thr    = 1.0d-8
    diagonalization = 'david'
/

CELL_PARAMETERS angstrom
   7.384391452   0.000000000   0.000000000
   0.000000000   7.701076429   0.000000000
   0.000000000   0.000000000   7.385994154

ATOMIC_SPECIES
W 183.84 W_ONCV_LDA-4.0.upf
O 15.9994 O_ONCV_LDA-3.0.upf

ATOMIC_POSITIONS crystal
W        0.245840001	0.28491639976000005	0.00393	
W        0.754159999	0.71508360024	0.996070041	
W        0.254159983	0.21508361119	0.503929959	
W        0.745840001	0.78491636876	0.496070009	
W       0.754159999	0.28491639976000005	0.496070009	
W       0.245840001	0.71508360024	0.503929959	
W       0.745840001	0.21508361119	0.996070041	
W       0.254159983	0.78491636876	0.00393	
O        0.242320003	0.014103400269999998	0.00122	
O        0.757680014	0.98589663002	0.998779998	
O        0.257679997	0.48589659065	0.501220002	
O        0.742319986	0.51410338672	0.498779998	
O        0.757680014	0.014103400269999998	0.498779998	
O        0.242320003	0.98589663002	0.501220002	
O        0.742319986	0.48589659065	0.998779998	
O        0.257679997	0.51410338672	0.00122	
O    0.501140012	0.242119995	0.4653377148	
O    0.498859988	0.757879944	0.53466226975	
O    0.998860021	0.257880005	0.96533773484	
O    0.001139998	0.742120025	0.03466231308	
O   0.498859988	0.242119995	0.03466231308	
O   0.501140012	0.757879944	0.96533773484	
O   0.001139998	0.257880005	0.53466226975	
O   0.998860021	0.742120025	0.4653377148	
O   0.71533775671	0.248280001	0.748269977	
O   0.28466229816	0.751719999	0.251730023	
O   0.78466226084	0.251720015	0.248270042	
O   0.21533773107	0.74827997	0.751730023	
O   0.28466229816	0.248280001	0.751730023	
O   0.71533775671	0.751719999	0.248270042	
O   0.21533773107	0.251720015	0.251730023	
O   0.78466226084	0.74827997	0.748269977	

K_POINTS automatic
6 6 6 0 0 0
