
&CONTROL
    calculation   = 'vc-relax'
    restart_mode  = 'from_scratch'
    prefix        = 'Landau_36'
    pseudo_dir    = '/cluster/scratch/mnoe/QE/pps'
    outdir        = './'
    forc_conv_thr = 1.0d-7
    etot_conv_thr = 1.0d-7

/
&SYSTEM
    ibrav       = 0
    nat         = 32
    ntyp        = 2
    ecutwfc     = 120
    occupations = 'smearing'
    degauss     = 7.35d-4
    tot_charge  = -0.0
/
&ELECTRONS
    conv_thr    = 1.0d-8
    diagonalization = 'david'
/


&IONS
ion_dynamics = 'bfgs'
/

&CELL
cell_dynamics = 'bfgs'
cell_dofree = 'all'
/
CELL_PARAMETERS angstrom
        7.3236460686         0.0000000000         0.0000000000
        0.0000000000         7.7495899200         0.0000000000
        0.0000000000         0.0000000000         7.3236460686

ATOMIC_SPECIES
W 183.84 W_ONCV_LDA-4.0.upf
O 15.9994 O_ONCV_LDA-3.0.upf

ATOMIC_POSITIONS crystal
W 0.233349992	0.2782809386487147	0.01572	 0 0 0
W 0.7666500049749279	0.7217190613512853	0.984279969	 0 0 0
W 0.266650024	0.22171907754035228	0.515719998	 0 0 0
W 0.7333499569749278	0.778280944509792	0.484280002	 0 0 0
W 0.7666500049749279	0.2782809386487147	0.484280002	 0 0 0
W 0.233349992	0.7217190613512853	0.515719998	 0 0 0
W 0.7333499569749278	0.22171907754035228	0.984279969	 0 0 0
W 0.266650024	0.778280944509792	0.01572	 0 0 0
O 0.219290006	0.007344956728405441	0.00489	 0 0 0
O 0.7807099429749278	0.9926550413011873	0.995109966	 0 0 0
O 0.280709994	0.49265504716226466	0.504890034	 0 0 0
O 0.7192900189749278	0.5073449586988127	0.495109999	 0 0 0
O 0.7807099429749278	0.007344956728405441	0.495109999	 0 0 0
O 0.219290006	0.9926550413011873	0.504890034	 0 0 0
O 0.7192900189749278	0.49265504716226466	0.995109966	 0 0 0
O 0.280709994	0.5073449586988127	0.00489	 0 0 0
O 0.504549987	0.218490008	0.45829152054599304	 0 0 0
O 0.495450013	0.7815099938360052	0.5417084856932182	 0 0 0
O 0.995450046	0.281510007	0.958291553545993	 0 0 0
O 0.00454998	0.7184900108360052	0.04170846216013063	 0 0 0
O 0.495450013	0.218490008	0.04170846216013063	 0 0 0
O 0.504549987	0.7815099938360052	0.958291553545993	 0 0 0
O 0.00454998	0.281510007	0.5417084856932182	 0 0 0
O 0.995450046	0.7184900108360052	0.45829152054599304	 0 0 0
O 0.7082915333318539	0.243120003	0.7430999429749278	 0 0 0
O 0.2917084604289347	0.7568799988360051	0.256900006	 0 0 0
O 0.7917085047182904	0.256879981	0.243099929	 0 0 0
O 0.20829153654599308	0.7431200058360051	0.7569000189749279	 0 0 0
O 0.2917084604289347	0.243120003	0.7569000189749279	 0 0 0
O 0.7082915333318539	0.7568799988360051	0.243099929	 0 0 0
O 0.20829153654599308	0.256879981	0.256900006	 0 0 0
O 0.7917085047182904	0.7431200058360051	0.7430999429749278	 0 0 0

K_POINTS automatic
6 6 6 0 0 0
