&CONTROL
    calculation   = 'scf'
    restart_mode  = 'from_scratch'
    prefix        = 'Landau_14'
    pseudo_dir    = '/cluster/scratch/mnoe/QE/pps'
    outdir        = './'
/
&SYSTEM
    ibrav       = 0
    nat         = 32
    ntyp        = 2
    ecutwfc     = 120
    occupations = 'smearing'
    degauss     = 7.35d-4
    tot_charge  = -0.6
/
&ELECTRONS
    conv_thr    = 1.0d-8
    diagonalization = 'david'
/

CELL_PARAMETERS angstrom
   7.476238404  -0.000000306  -0.000000015
  -0.000000328   7.631952752   0.000000115
  -0.000000015   0.000000109   7.476238366

ATOMIC_SPECIES
W 183.84 W_ONCV_LDA-4.0.upf
O 15.9994 O_ONCV_LDA-3.0.upf

ATOMIC_POSITIONS crystal
W 0.25	0.27071650107544387	0.0	
W 0.7499999407649857	0.7292834989245561	0.0	
W 0.25	0.22928351762674434	0.5	
W 0.7499999407649857	0.7707165848432842	0.5	
W 0.7499999407649857	0.27071650107544387	0.5	
W 0.25	0.7292834989245561	0.5	
W 0.7499999407649857	0.22928351762674434	0.0	
W 0.25	0.7707165848432842	0.0	
O 0.25	0.0052841795991632615	0.0	
O 0.7499999407649857	0.9947157656548804	0.0	
O 0.25	0.49471584942272073	0.5	
O 0.7499999407649857	0.5052842343451196	0.5	
O 0.7499999407649857	0.0052841795991632615	0.5	
O 0.25	0.9947157656548804	0.5	
O 0.7499999407649857	0.49471584942272073	0.0	
O 0.25	0.5052842343451196	0.0	
O 0.5	0.25	0.47678805877108454	
O 0.5	0.750000040532826	0.5232120304011324	
O 0.0	0.25	0.9767880917710846	
O 0.0	0.750000040532826	0.023211853567640255	
O 0.5	0.25	0.023211853567640255	
O 0.5	0.750000040532826	0.9767880917710846	
O 0.0	0.25	0.5232120304011324	
O 0.0	0.750000040532826	0.47678805877108454	
O 0.7267880288338819	0.25	0.7499999407649857	
O 0.2732118819939009	0.750000040532826	0.25	
O 0.7732120896361466	0.25	0.25	
O 0.2267880747710846	0.750000040532826	0.7499999407649857	
O 0.2732118819939009	0.25	0.7499999407649857	
O 0.7267880288338819	0.750000040532826	0.25	
O 0.2267880747710846	0.25	0.25	
O 0.7732120896361466	0.750000040532826	0.7499999407649857	

K_POINTS automatic
6 6 6 0 0 0
