
&CONTROL
    calculation   = 'vc-relax'
    restart_mode  = 'from_scratch'
    prefix        = 'Landau_18'
    pseudo_dir    = '/cluster/scratch/mnoe/QE/pps'
    outdir        = './'
    forc_conv_thr = 1.0d-7
    etot_conv_thr = 1.0d-7

/
&SYSTEM
    ibrav       = 0
    nat         = 32
    ntyp        = 2
    ecutwfc     = 120
    occupations = 'smearing'
    degauss     = 7.35d-4
    tot_charge  = -0.0
/
&ELECTRONS
    conv_thr    = 1.0d-8
    diagonalization = 'david'
/


&IONS
ion_dynamics = 'bfgs'
/

&CELL
cell_dynamics = 'bfgs'
cell_dofree = 'all'
/
CELL_PARAMETERS angstrom
        7.3236460686         0.0000000000         0.0000000000
        0.0000000000         7.7495899200         0.0000000000
        0.0000000000         0.0000000000         7.3236460686

ATOMIC_SPECIES
W 183.84 W_ONCV_LDA-4.0.upf
O 15.9994 O_ONCV_LDA-3.0.upf

ATOMIC_POSITIONS crystal
0.266180013	0.281860003	0.2504599980000001	 0 0 0
-0.25046001500000015	0.718139997	-0.7338200190000002	 0 0 0
0.233819987	0.218140012	0.750459983	 0 0 0
0.7504599980000001	0.781859972	0.766180013	 0 0 0
0.733820002	0.281860003	0.749540017	 0 0 0
0.250459983	0.718139997	0.733819987	 0 0 0
-0.23382001900000005	0.218140012	-0.7504600150000003	 0 0 0
0.249540017	0.781859972	0.23382000199999997	 0 0 0
0.26780999299999997	0.00832	0.26291002700000005	 0 0 0
-0.262910062	0.991680023	-0.732190008	 0 0 0
0.23219000699999998	0.491679992	0.762909997	 0 0 0
0.762910027	0.508319977	0.767809993	 0 0 0
0.732189973	0.00832	0.737090003	 0 0 0
0.26290999699999995	0.991680023	0.732190007	 0 0 0
-0.2321900079999999	0.491679992	-0.7629100620000001	 0 0 0
0.237090003	0.508319977	0.23218997299999994	 0 0 0
0.4942700549999999	0.26919001000000004	0.6995400039999999	 0 0 0
0.49883003699999984	0.7376900029999999	0.800459963	 0 0 0
-0.9942700560000001	0.230810006	1.199540037	 0 0 0
0.0011699239999999667	0.7623099069999999	0.300460012	 0 0 0
0.505729945	0.26919001000000004	0.300460012	 0 0 0
0.501169963	0.7376900029999999	1.199540037	 0 0 0
-0.005729967000000025	0.230810006	0.800459963	 0 0 0
-1.0011699470000002	0.7623099069999999	0.6995400039999999	 0 0 0
0.6995400369999999	0.237690002	2.001169931	 0 0 0
0.300459996	0.7308099449999998	0.494270039	 0 0 0
0.800459963	0.262310014	0.50116993	 0 0 0
0.19954001999999996	0.7691899649999999	1.994270023	 0 0 0
0.300459996	0.237690002	0.9988300429999999	 0 0 0
0.699540037	0.7308099449999998	0.505729912	 0 0 0
0.19954002	0.262310014	0.49883002099999996	 0 0 0
0.800459963	0.7691899649999999	1.0057299510000002	 0 0 0

K_POINTS automatic
6 6 6 0 0 0
