
&CONTROL
    calculation   = 'vc-relax'
    restart_mode  = 'from_scratch'
    prefix        = 'Landau_38'
    pseudo_dir    = '/cluster/scratch/mnoe/QE/pps'
    outdir        = './'
    forc_conv_thr = 1.0d-7
    etot_conv_thr = 1.0d-7

/
&SYSTEM
    ibrav       = 0
    nat         = 32
    ntyp        = 2
    ecutwfc     = 120
    occupations = 'smearing'
    degauss     = 7.35d-4
    tot_charge  = -0.0
/
&ELECTRONS
    conv_thr    = 1.0d-8
    diagonalization = 'david'
/


&IONS
ion_dynamics = 'bfgs'
/

&CELL
cell_dynamics = 'bfgs'
cell_dofree = 'all'
/
CELL_PARAMETERS angstrom
        7.3236460686         0.0000000000         0.0000000000
        0.0000000000         7.7495899200         0.0000000000
        0.0000000000         0.0000000000         7.3236460686

ATOMIC_SPECIES
W 183.84 W_ONCV_LDA-4.0.upf
O 15.9994 O_ONCV_LDA-3.0.upf

ATOMIC_POSITIONS crystal
W 0.232429994	0.28529912855428	0.0166	 0 0 0
W 0.76756999	0.7147008714457199	0.983399982	 0 0 0
W 0.267570023	0.21470088188857	0.516600018	 0 0 0
W 0.73243001	0.7852990975542801	0.483399982	 0 0 0
W 0.76756999	0.28529912855428	0.483399982	 0 0 0
W 0.232429994	0.7147008714457199	0.516600018	 0 0 0
W 0.73243001	0.21470088188857	0.983399982	 0 0 0
W 0.267570023	0.7852990975542801	0.0166	 0 0 0
O 0.217580004	0.014827610503809999	0.00516	 0 0 0
O 0.782419996	0.98517242069906	0.994840012	 0 0 0
O 0.282419996	0.48517238028095	0.505159988	 0 0 0
O 0.717580004	0.5148275981371601	0.494840012	 0 0 0
O 0.782419996	0.014827610503809999	0.494840012	 0 0 0
O 0.217580004	0.98517242069906	0.505159988	 0 0 0
O 0.717580004	0.48517238028095	0.994840012	 0 0 0
O 0.282419996	0.5148275981371601	0.00516	 0 0 0
O 0.504800017	0.216739997	0.4673159392524	 0 0 0
O 0.495199983	0.783260019	0.53268404749525	 0 0 0
O 0.995199951	0.283259988	0.96731595766952	 0 0 0
O 0.004800081	0.716740012	0.03268409011524	 0 0 0
O 0.495199983	0.216739997	0.03268409011524	 0 0 0
O 0.504800017	0.783260019	0.96731595766952	 0 0 0
O 0.004800081	0.283259988	0.53268404749525	 0 0 0
O 0.995199951	0.716740012	0.4673159392524	 0 0 0
O 0.71731598227813	0.24274001	0.742710007	 0 0 0
O 0.28268407533048	0.757259944	0.25729001	 0 0 0
O 0.78268403746952	0.25725999	0.24270999	 0 0 0
O 0.21731595555621	0.742740026	0.757289993	 0 0 0
O 0.28268407533048	0.24274001	0.757289993	 0 0 0
O 0.71731598227813	0.757259944	0.24270999	 0 0 0
O 0.21731595555621	0.25725999	0.25729001	 0 0 0
O 0.78268403746952	0.742740026	0.742710007	 0 0 0

K_POINTS automatic
6 6 6 0 0 0
