
&CONTROL
    calculation   = 'vc-relax'
    restart_mode  = 'from_scratch'
    prefix        = 'Landau_38'
    pseudo_dir    = '/cluster/scratch/mnoe/QE/pps'
    outdir        = './'
    forc_conv_thr = 1.0d-7
    etot_conv_thr = 1.0d-7

/
&SYSTEM
    ibrav       = 0
    nat         = 32
    ntyp        = 2
    ecutwfc     = 120
    occupations = 'smearing'
    degauss     = 7.35d-4
    tot_charge  = -0.0
/
&ELECTRONS
    conv_thr    = 1.0d-8
    diagonalization = 'david'
/


&IONS
ion_dynamics = 'bfgs'
/

&CELL
cell_dynamics = 'bfgs'
cell_dofree = 'all'
/
CELL_PARAMETERS angstrom
        7.3236460686         0.0000000000         0.0000000000
        0.0000000000         7.7495899200         0.0000000000
        0.0000000000         0.0000000000         7.3236460686

ATOMIC_SPECIES
W 183.84 W_ONCV_LDA-4.0.upf
O 15.9994 O_ONCV_LDA-3.0.upf

ATOMIC_POSITIONS crystal
W 0.232429994	0.27808210174030995	0.0166	 0 0 0
W 0.7675699699179794	0.72191789825969	0.983399982	 0 0 0
W 0.267570023	0.22191791451481627	0.516600018	 0 0 0
W 0.7324299899179794	0.7780821096492249	0.483399982	 0 0 0
W 0.7675699699179794	0.27808210174030995	0.483399982	 0 0 0
W 0.232429994	0.72191789825969	0.516600018	 0 0 0
W 0.7324299899179794	0.22191791451481627	0.983399982	 0 0 0
W 0.267570023	0.7780821096492249	0.0166	 0 0 0
O 0.217580004	0.0072907876577612985	0.00516	 0 0 0
O 0.7824199759179794	0.9927092089845867	0.994840012	 0 0 0
O 0.282419996	0.4927092168935016	0.505159988	 0 0 0
O 0.7175799839179794	0.5072907910154133	0.494840012	 0 0 0
O 0.7824199759179794	0.0072907876577612985	0.494840012	 0 0 0
O 0.217580004	0.9927092089845867	0.505159988	 0 0 0
O 0.7175799839179794	0.4927092168935016	0.994840012	 0 0 0
O 0.282419996	0.5072907910154133	0.00516	 0 0 0
O 0.504800017	0.216739997	0.4587777159096593	 0 0 0
O 0.495199983	0.7832600378268944	0.5412222925095082	 0 0 0
O 0.995199951	0.283259988	0.9587777489096594	 0 0 0
O 0.004800081	0.7167400308268944	0.04122226494680456	 0 0 0
O 0.495199983	0.216739997	0.04122226494680456	 0 0 0
O 0.504800017	0.7832600378268944	0.9587777489096594	 0 0 0
O 0.004800081	0.283259988	0.5412222925095082	 0 0 0
O 0.995199951	0.7167400308268944	0.4587777159096593	 0 0 0
O 0.7087777275725125	0.24274001	0.7427099869179794	 0 0 0
O 0.29122226400831996	0.7572599628268943	0.25729001	 0 0 0
O 0.7912223125915288	0.25725999	0.24270999	 0 0 0
O 0.20877773190965937	0.7427400448268944	0.7572899729179794	 0 0 0
O 0.29122226400831996	0.24274001	0.7572899729179794	 0 0 0
O 0.7087777275725125	0.7572599628268943	0.24270999	 0 0 0
O 0.20877773190965937	0.25725999	0.25729001	 0 0 0
O 0.7912223125915288	0.7427400448268944	0.7427099869179794	 0 0 0

K_POINTS automatic
6 6 6 0 0 0
