
&CONTROL
    calculation   = 'vc-relax'
    restart_mode  = 'from_scratch'
    prefix        = 'Landau_27'
    pseudo_dir    = '/cluster/scratch/mnoe/QE/pps'
    outdir        = './'
    forc_conv_thr = 1.0d-7
    etot_conv_thr = 1.0d-7

/
&SYSTEM
    ibrav       = 0
    nat         = 32
    ntyp        = 2
    ecutwfc     = 120
    occupations = 'smearing'
    degauss     = 7.35d-4
    tot_charge  = -0.0
/
&ELECTRONS
    conv_thr    = 1.0d-8
    diagonalization = 'david'
/


&IONS
ion_dynamics = 'bfgs'
/

&CELL
cell_dynamics = 'bfgs'
cell_dofree = 'all'
/
CELL_PARAMETERS angstrom
        7.3236460686         0.0000000000         0.0000000000
        0.0000000000         7.7495899200         0.0000000000
        0.0000000000         0.0000000000         7.3236460686

ATOMIC_SPECIES
W 183.84 W_ONCV_LDA-4.0.upf
O 15.9994 O_ONCV_LDA-3.0.upf

ATOMIC_POSITIONS crystal
W 0.237509991	0.28430359220962004	0.01179	 0 0 0
W 0.762490025	0.71569640779038	0.988209993	 0 0 0
W 0.262490009	0.21569641955240498	0.511789974	 0 0 0
W 0.737509975	0.78430356120962	0.488209993	 0 0 0
W 0.762490025	0.28430359220962004	0.488209993	 0 0 0
W 0.237509991	0.71569640779038	0.511789974	 0 0 0
W 0.737509975	0.21569641955240498	0.988209993	 0 0 0
W 0.262490009	0.78430356120962	0.01179	 0 0 0
O 0.226970003	0.012943828515865	0.00367	 0 0 0
O 0.773030013	0.98705620031249	0.996330033	 0 0 0
O 0.273029981	0.487056162620675	0.503669967	 0 0 0
O 0.726969987	0.51294381307114	0.49633	 0 0 0
O 0.773030013	0.012943828515865	0.49633	 0 0 0
O 0.226970003	0.98705620031249	0.503669967	 0 0 0
O 0.726969987	0.487056162620675	0.996330033	 0 0 0
O 0.273029981	0.51294381307114	0.00367	 0 0 0
O 0.503409975	0.226370014	0.4621702737846	 0 0 0
O 0.496590025	0.773630017	0.5378297072466249	 0 0 0
O 0.996590025	0.273629986	0.96217029642308	 0 0 0
O 0.003409982	0.726369952	0.03782975171346	 0 0 0
O 0.496590025	0.226370014	0.03782975171346	 0 0 0
O 0.503409975	0.773630017	0.96217029642308	 0 0 0
O 0.003409982	0.273629986	0.5378297072466249	 0 0 0
O 0.996590025	0.726369952	0.4621702737846	 0 0 0
O 0.712170313908145	0.244840003	0.744820023	 0 0 0
O 0.28782973657692	0.755159967	0.255179993	 0 0 0
O 0.78782970012308	0.255159997	0.244820007	 0 0 0
O 0.212170290000465	0.744840003	0.755179977	 0 0 0
O 0.28782973657692	0.244840003	0.755179977	 0 0 0
O 0.712170313908145	0.755159967	0.244820007	 0 0 0
O 0.212170290000465	0.255159997	0.255179993	 0 0 0
O 0.78782970012308	0.744840003	0.744820023	 0 0 0

K_POINTS automatic
6 6 6 0 0 0
