
&CONTROL
    calculation   = 'vc-relax'
    restart_mode  = 'from_scratch'
    prefix        = 'Landau_27'
    pseudo_dir    = '/cluster/scratch/mnoe/QE/pps'
    outdir        = './'
    forc_conv_thr = 1.0d-7
    etot_conv_thr = 1.0d-7

/
&SYSTEM
    ibrav       = 0
    nat         = 32
    ntyp        = 2
    ecutwfc     = 120
    occupations = 'smearing'
    degauss     = 7.35d-4
    tot_charge  = -0.0
/
&ELECTRONS
    conv_thr    = 1.0d-8
    diagonalization = 'david'
/


&IONS
ion_dynamics = 'bfgs'
/

&CELL
cell_dynamics = 'bfgs'
cell_dofree = 'all'
/
CELL_PARAMETERS angstrom
        7.3236460686         0.0000000000         0.0000000000
        0.0000000000         7.7495899200         0.0000000000
        0.0000000000         0.0000000000         7.3236460686

ATOMIC_SPECIES
W 183.84 W_ONCV_LDA-4.0.upf
O 15.9994 O_ONCV_LDA-3.0.upf

ATOMIC_POSITIONS crystal
W 0.237509991	0.279175704736536	0.01179	 0 0 0
W 0.7624900107311958	0.7208242952634639	0.988209993	 0 0 0
W 0.262490009	0.22082431115526419	0.511789974	 0 0 0
W 0.7375099607311959	0.779175701382344	0.488209993	 0 0 0
W 0.7624900107311958	0.279175704736536	0.488209993	 0 0 0
W 0.237509991	0.7208242952634639	0.511789974	 0 0 0
W 0.7375099607311959	0.22082431115526419	0.988209993	 0 0 0
W 0.262490009	0.779175701382344	0.01179	 0 0 0
O 0.226970003	0.00758871754630408	0.00367	 0 0 0
O 0.7730299987311958	0.9924112867258905	0.996330033	 0 0 0
O 0.273029981	0.4924112833716985	0.503669967	 0 0 0
O 0.7269699727311959	0.5075887132741095	0.49633	 0 0 0
O 0.7730299987311958	0.00758871754630408	0.49633	 0 0 0
O 0.226970003	0.9924112867258905	0.503669967	 0 0 0
O 0.7269699727311959	0.4924112833716985	0.996330033	 0 0 0
O 0.273029981	0.5075887132741095	0.00367	 0 0 0
O 0.503409975	0.226370014	0.4561036414094948	 0 0 0
O 0.496590025	0.7736300303770038	0.5438963550199136	 0 0 0
O 0.996590025	0.273629986	0.9561036744094948	 0 0 0
O 0.003409982	0.7263699653770038	0.043896349620097974	 0 0 0
O 0.496590025	0.226370014	0.043896349620097974	 0 0 0
O 0.503409975	0.7736300303770038	0.9561036744094948	 0 0 0
O 0.003409982	0.273629986	0.5438963550199136	 0 0 0
O 0.996590025	0.7263699653770038	0.4561036414094948	 0 0 0
O 0.7061036592488905	0.244840003	0.7448200087311959	 0 0 0
O 0.29389634432170103	0.7551599803770038	0.255179993	 0 0 0
O 0.7938963692887178	0.255159997	0.244820007	 0 0 0
O 0.20610365740949482	0.7448400163770038	0.7551799627311958	 0 0 0
O 0.29389634432170103	0.244840003	0.7551799627311958	 0 0 0
O 0.7061036592488905	0.7551599803770038	0.244820007	 0 0 0
O 0.20610365740949482	0.255159997	0.255179993	 0 0 0
O 0.7938963692887178	0.7448400163770038	0.7448200087311959	 0 0 0

K_POINTS automatic
6 6 6 0 0 0
