
&CONTROL
    calculation   = 'vc-relax'
    restart_mode  = 'from_scratch'
    prefix        = 'Landau_36'
    pseudo_dir    = '/cluster/scratch/mnoe/QE/pps'
    outdir        = './'
    forc_conv_thr = 1.0d-7
    etot_conv_thr = 1.0d-7

/
&SYSTEM
    ibrav       = 0
    nat         = 32
    ntyp        = 2
    ecutwfc     = 120
    occupations = 'smearing'
    degauss     = 7.35d-4
    tot_charge  = -0.0
/
&ELECTRONS
    conv_thr    = 1.0d-8
    diagonalization = 'david'
/


&IONS
ion_dynamics = 'bfgs'
/

&CELL
cell_dynamics = 'bfgs'
cell_dofree = 'all'
/
CELL_PARAMETERS angstrom
        7.3236460686         0.0000000000         0.0000000000
        0.0000000000         7.7495899200         0.0000000000
        0.0000000000         0.0000000000         7.3236460686

ATOMIC_SPECIES
W 183.84 W_ONCV_LDA-4.0.upf
O 15.9994 O_ONCV_LDA-3.0.upf

ATOMIC_POSITIONS crystal
W 0.25	0.2768417248922502	0.0	 0 0 0
W 0.7499999733245637	0.7231582751077499	0.0	 0 0 0
W 0.25	0.22315829177496452	0.5	 0 0 0
W 0.7499999733245637	0.776841745575908	0.5	 0 0 0
W 0.7499999733245637	0.2768417248922502	0.5	 0 0 0
W 0.25	0.7231582751077499	0.5	 0 0 0
W 0.7499999733245637	0.22315829177496452	0.0	 0 0 0
W 0.25	0.776841745575908	0.0	 0 0 0
O 0.25	0.006952872219189195	0.0	 0 0 0
O 0.7499999733245637	0.9930471157693007	0.0	 0 0 0
O 0.25	0.4930471364529585	0.5	 0 0 0
O 0.7499999733245637	0.5069528842306993	0.5	 0 0 0
O 0.7499999733245637	0.006952872219189195	0.5	 0 0 0
O 0.25	0.9930471157693007	0.5	 0 0 0
O 0.7499999733245637	0.4930471364529585	0.0	 0 0 0
O 0.25	0.5069528842306993	0.0	 0 0 0
O 0.5	0.25	0.4618106813563867	 0 0 0
O 0.5	0.7500000100082216	0.5381893406617007	 0 0 0
O 0.0	0.25	0.9618107143563867	 0 0 0
O 0.0	0.7500000100082216	0.038189287961599774	 0 0 0
O 0.5	0.25	0.038189287961599774	 0 0 0
O 0.5	0.7500000100082216	0.9618107143563867	 0 0 0
O 0.0	0.25	0.5381893406617007	 0 0 0
O 0.0	0.7500000100082216	0.4618106813563867	 0 0 0
O 0.7118106860137356	0.25	0.7499999733245637	 0 0 0
O 0.28818929196817694	0.7500000100082216	0.25	 0 0 0
O 0.7881893673371368	0.25	0.25	 0 0 0
O 0.2118106973563867	0.7500000100082216	0.7499999733245637	 0 0 0
O 0.28818929196817694	0.25	0.7499999733245637	 0 0 0
O 0.7118106860137356	0.7500000100082216	0.25	 0 0 0
O 0.2118106973563867	0.25	0.25	 0 0 0
O 0.7881893673371368	0.7500000100082216	0.7499999733245637	 0 0 0

K_POINTS automatic
6 6 6 0 0 0
