&CONTROL
    calculation   = 'scf'
    restart_mode  = 'from_scratch'
    prefix        = 'Landau_21'
    pseudo_dir    = '/cluster/scratch/mnoe/QE/pps'
    outdir        = './'
/
&SYSTEM
    ibrav       = 0
    nat         = 32
    ntyp        = 2
    ecutwfc     = 120
    occupations = 'smearing'
    degauss     = 7.35d-4
    tot_charge  = -0.52
/
&ELECTRONS
    conv_thr    = 1.0d-8
    diagonalization = 'david'
/

CELL_PARAMETERS angstrom
   7.333850040   0.000000000   0.000000000
   0.000000000   7.667337574   0.000000000
   0.000000000   0.000000000   7.333850040

ATOMIC_SPECIES
W 183.84 W_ONCV_LDA-4.0.upf
O 15.9994 O_ONCV_LDA-3.0.upf

ATOMIC_POSITIONS crystal
W 0.2688799930000001	0.281860003	0.25054000600000004	
W -0.250540038	0.718139997	-0.7311200240000001	
W 0.23111999100000002	0.218140012	0.7505400050000001	
W 0.750540006	0.781859972	0.7688800090000001	
W 0.731119992	0.281860003	0.749460011	
W 0.2505399890000001	0.718139997	0.731120007	
W -0.23112002399999998	0.218140012	-0.7505400380000001	
W 0.24945999500000005	0.781859972	0.231119992	
O 0.2707699789999999	0.00832	0.265070032	
O -0.26507001900000005	0.991680023	-0.7292299550000001	
O 0.22923000499999996	0.491679992	0.7650700349999999	
O 0.765070032	0.508319977	0.770769995	
O 0.729229968	0.00832	0.734929981	
O 0.26507001899999993	0.991680023	0.729230021	
O -0.22922995499999999	0.491679992	-0.7650700190000002	
O 0.2349299649999999	0.508319977	0.22922996799999995	
O 0.493320007	0.272390001	0.6995400039999999	
O 0.49862005099999995	0.7356299609999999	0.800459963	
O -0.993319959	0.227609999	1.199540037	
O 0.0013799650000000125	0.764369887	0.300460012	
O 0.506679993	0.272390001	0.300460012	
O 0.501379949	0.7356299609999999	1.199540037	
O -0.006680009000000013	0.227609999	0.800459963	
O -1.001379933	0.764369887	0.6995400039999999	
O 0.6995400369999999	0.23563002099999997	2.001379917	
O 0.300459996	0.7276098919999999	0.493319991	
O 0.800459963	0.26436997900000003	0.501379965	
O 0.19954001999999996	0.7723899559999999	1.993319975	
O 0.300459996	0.23563002099999997	0.998620051	
O 0.699540037	0.7276098919999999	0.506680009	
O 0.19954002	0.26436997900000003	0.49862003499999996	
O 0.800459963	0.7723899559999999	1.006679993	

K_POINTS automatic
6 6 6 0 0 0
