&CONTROL
    calculation   = 'scf'
    restart_mode  = 'from_scratch'
    prefix        = 'Landau_3'
    pseudo_dir    = '/cluster/scratch/mnoe/QE/pps'
    outdir        = './'
/
&SYSTEM
    ibrav       = 0
    nat         = 32
    ntyp        = 2
    ecutwfc     = 120
    occupations = 'smearing'
    degauss     = 7.35d-4
    tot_charge  = -0.6
/
&ELECTRONS
    conv_thr    = 1.0d-8
    diagonalization = 'david'
/

CELL_PARAMETERS angstrom
   7.343770650   0.000000000   0.000000000
   0.000000000   7.730175963   0.000000000
   0.000000000   0.000000000   7.344612410

ATOMIC_SPECIES
W 183.84 W_ONCV_LDA-4.0.upf
O 15.9994 O_ONCV_LDA-3.0.upf

ATOMIC_POSITIONS crystal
W 0.24569810451904509	0.28068331196095286	0.0010035841423087172	
W 0.7512480985983924	0.7193166880390471	-0.00423741270769129	
W 0.25430189548095494	0.2193167034299774	0.5010035841564926	
W 0.7487518909020616	0.7806832930797903	0.49576258085649266	
W 0.7543018858020616	0.28068331196095286	0.49899641584350735	
W 0.24875189548095492	0.7193166880390471	0.5042374191435074	
W 0.7456981036983924	0.2193167034299774	-0.001003580692308725	
W 0.25124810451904506	0.7806832930797903	0.004237416157691283	
O 0.24440591030361258	0.00799943446449726	-0.0021684911267230477	
O 0.7546449005987287	-0.007999419674032338	-0.0037974921767230416	
O 0.25559408441215625	0.4920005614448052	0.49783150208904575	
O 0.7453550862796969	0.5079994196740323	0.4962025049390457	
O 0.7555940754796969	0.00799943446449726	0.5021684943593694	
O 0.2453550829121562	-0.007999419674032338	0.5037974915093694	
O 0.7444059113987287	0.4920005614448052	0.002168490076723054	
O 0.2546449118036126	0.5079994196740323	0.003797491126723048	
O 0.5014293652291003	0.24408075710045615	0.45241724511304254	
O 0.49991136282910037	0.754583751225424	0.5475827347876555	
O -0.001429364498038891	0.25591923839954384	0.9524172781130426	
O 8.863535196111097e-05	0.745416244833941	0.04758275994091067	
O 0.49857063477089963	0.24408075710045615	0.04758275994091067	
O 0.5000886371708997	0.754583751225424	0.9524172781130426	
O 0.0014293577291003541	0.25591923839954384	0.5475827347876555	
O -8.864212089964782e-05	0.745416244833941	0.45241724511304254	
O 0.7024172714672284	0.25191390469585134	0.7492917482132655	
O 0.29758274863207357	0.7542059057928475	0.25159274738391824	
O 0.7975827410425393	0.24808609268212026	0.24929176133391823	
O 0.20241726111304253	0.7457940903291165	0.7515927440132656	
O 0.29758274863207357	0.25191390469585134	0.7507082465312451	
O 0.7024172714672284	0.7542059057928475	0.24840726236608177	
O 0.20241726111304253	0.24808609268212026	0.2507082484160818	
O 0.7975827410425393	0.7457940903291165	0.7484072507312451	

K_POINTS automatic
6 6 6 0 0 0
