&CONTROL
    calculation   = 'scf'
    restart_mode  = 'from_scratch'
    prefix        = 'Landau_8'
    pseudo_dir    = '/cluster/scratch/mnoe/QE/pps'
    outdir        = './'
/
&SYSTEM
    ibrav       = 0
    nat         = 32
    ntyp        = 2
    ecutwfc     = 120
    occupations = 'smearing'
    degauss     = 7.35d-4
    tot_charge  = -0.2
/
&ELECTRONS
    conv_thr    = 1.0d-8
    diagonalization = 'david'
/

CELL_PARAMETERS angstrom
   7.357455889   0.000000000   0.000000000
   0.000000000   7.681442200   0.000000000
   0.000000000   0.000000000   7.357455889

ATOMIC_SPECIES
W 183.84 W_ONCV_LDA-4.0.upf
O 15.9994 O_ONCV_LDA-3.0.upf

ATOMIC_POSITIONS crystal
W 0.23562765919537482	0.28017067729849526	-0.00041154428133562126	
W 0.750411544491447	0.7198293227015048	-0.014372320826398343	
W 0.2643723408046252	0.2198293382627468	0.4995884529217126	
W 0.7495884467387913	0.7801706636969992	0.4856276591953748	
W 0.7643723210365096	0.28017067729849526	0.5004115470782874	
W 0.2495884529217126	0.7198293227015048	0.5143723408046252	
W 0.7356276701937287	0.2198293382627468	0.0004115534713199599	
W 0.2504115470782874	0.7801706636969992	0.014372330016382683	
O 0.23419321891011408	0.007859777579525093	-0.011467487838368309	
O 0.7614674760615435	-0.007859766365608402	-0.015806761511223583	
O 0.2658067615112236	0.49214022003289554	0.488532488587324	
O 0.7385325031817587	0.5078597663656084	0.4841932253031467	
O 0.7658067497343989	0.007859777579525093	0.5114675046200788	
O 0.2385324821942914	-0.007859766365608402	0.5158067679042562	
O 0.7341932295089034	0.49214022003289554	0.011467485041416564	
O 0.2614674982270463	0.5078597663656084	0.01580675871427184	
O 0.5050864541634095	0.23295857367960654	0.4536707377273723	
O 0.5010428546521316	0.7609360871931131	0.5463292477936157	
O -0.005086441377344263	0.2670414143334573	0.9536707707273724	
O -0.0010428486586635164	0.7390639479914578	0.04632926255784987	
O 0.49491354583659053	0.23295857367960654	0.04632926255784987	
O 0.4989571453478684	0.7609360871931131	0.9536707707273724	
O 0.005086434185182593	0.2670414143334573	0.5463292477936157	
O 0.0010428414665018463	0.7390639479914578	0.4536707377273723	
O 0.7036707611862573	0.26093606980060996	0.7489571495536251	
O 0.2963292532927546	0.7670414441124612	0.25508645416340947	
O 0.7963292567734888	0.2390639182124539	0.24895717131956335	
O 0.20367075372737237	0.7329585910721097	0.7550864583691662	
O 0.2963292532927546	0.26093606980060996	0.7510428656504855	
O 0.7036707611862573	0.7670414441124612	0.2449135718082855	
O 0.20367075372737237	0.2390639182124539	0.2510428546521316	
O 0.7963292567734888	0.7329585910721097	0.7449135568349444	

K_POINTS automatic
6 6 6 0 0 0
