&CONTROL
    calculation   = 'scf'
    restart_mode  = 'from_scratch'
    prefix        = 'Landau_9'
    pseudo_dir    = '/cluster/scratch/mnoe/QE/pps'
    outdir        = './'
/
&SYSTEM
    ibrav       = 0
    nat         = 32
    ntyp        = 2
    ecutwfc     = 120
    occupations = 'smearing'
    degauss     = 7.35d-4
    tot_charge  = -1.0
/
&ELECTRONS
    conv_thr    = 1.0d-8
    diagonalization = 'david'
/

CELL_PARAMETERS angstrom
   7.369148189   0.000000000   0.000000000
   0.000000000   7.674316857   0.000000000
   0.000000000   0.000000000   7.375338903

ATOMIC_SPECIES
W 183.84 W_ONCV_LDA-4.0.upf
O 15.9994 O_ONCV_LDA-3.0.upf

ATOMIC_POSITIONS crystal
W 0.23643992977958314	0.27920769148478297	0.0023177884236298867	
W 0.7530899179196022	0.720792308515217	-0.013405202126370135	
W 0.2635600702204169	0.22079232439639035	0.5023177878294034	
W 0.7469100607750394	0.7792076878011568	0.4865947779294033	
W 0.7635600454750394	0.27920769148478297	0.49768221217059666	
W 0.24691007022041686	0.720792308515217	0.5134052220705967	
W 0.7364399332196022	0.22079232439639035	-0.00231777807362991	
W 0.25308992977958317	0.7792076878011568	0.013405212476370113	
O 0.23301433616238598	0.007597431685139601	-0.0077838981487647375	
O 0.7637313117136124	-0.007597427189779926	-0.01267090129876472	
O 0.26698564674882136	0.4924025691265939	0.49221608026244257	
O 0.7362686579912178	0.50759742718978	0.4873290888124425	
O 0.7669856255912177	0.007597431685139601	0.5077839096821236	
O 0.23626864224882135	-0.007597427189779926	0.5126709011321235	
O 0.7330143441136124	0.4924025691265939	0.007783894998764755	
O 0.26373134066238596	0.50759742718978	0.012670898148764737	
O 0.5045753945569155	0.2319560957087068	0.45602542751640424	
O 0.5000213873569155	0.7634651042712128	0.5439745685623162	
O -0.004575389928990483	0.2680438907912932	0.9560254605164042	
O -2.1390378990476626e-05	0.7365349374432711	0.04397456381074193	
O 0.4954246054430845	0.2319560957087068	0.04397456381074193	
O 0.49997861264308446	0.7634651042712128	0.9560254605164042	
O 0.004575372056915501	0.2680438907912932	0.5439745685623162	
O 2.137250691549436e-05	0.7365349374432711	0.45602542751640424	
O 0.7060254455364574	0.2570531016857761	0.7480647860348816	
O 0.2939745583848221	0.7639291322880937	0.2549677776448625	
O 0.7939745826610898	0.24294688932441233	0.2480648194948625	
O 0.20602544351640428	0.7360709095767299	0.7549677734348816	
O 0.2939745583848221	0.2570531016857761	0.7519352106393832	
O 0.7060254455364574	0.7639291322880937	0.24503225160513753	
O 0.20602544351640428	0.24294688932441233	0.25193520975513756	
O 0.7939745826610898	0.7360709095767299	0.7450322232393831	

K_POINTS automatic
6 6 6 0 0 0
