# Phonon frequency and phonon lifetime in meV 
# Q-point  Mode   Phonon freq (meV)   Phonon linewidth (meV)
        1     1     -0.72739858E+01      0.0000000000E+00
        1     2     -0.72739858E+01      0.0000000000E+00
        1     3     -0.53021687E+01      0.0000000000E+00
        1     4     -0.12575611E-02      0.0000000000E+00
        1     5     -0.12575609E-02      0.0000000000E+00
        1     6     -0.80763750E-03      0.0000000000E+00
        1     7      0.16434407E+02      0.0000000000E+00
        1     8      0.30569748E+02      0.0000000000E+00
        1     9      0.30605177E+02      0.0000000000E+00
        1    10      0.30605177E+02      0.0000000000E+00
        1    11      0.31581733E+02      0.0000000000E+00
        1    12      0.31581733E+02      0.0000000000E+00
        1    13      0.38704340E+02      0.0000000000E+00
        1    14      0.38704340E+02      0.0000000000E+00
        1    15      0.39500522E+02      0.0000000000E+00
        1    16      0.45376602E+02      0.0000000000E+00
        1    17      0.45376602E+02      0.0000000000E+00
        1    18      0.56664416E+02      0.0000000000E+00
        1    19      0.73283275E+02      0.0000000000E+00
        1    20      0.76844957E+02      0.0000000000E+00
        1    21      0.76844957E+02      0.0000000000E+00
        1    22      0.96550937E+02      0.0000000000E+00
        1    23      0.97138098E+02      0.0000000000E+00
        1    24      0.13008246E+03      0.0000000000E+00
        2     1     -0.72672731E+01      0.0000000000E+00
        2     2     -0.72672731E+01      0.0000000000E+00
        2     3     -0.53024095E+01      0.0000000000E+00
        2     4      0.16730854E+00      0.0000000000E+00
        2     5      0.16730854E+00      0.0000000000E+00
        2     6      0.32877563E+00      0.0000000000E+00
        2     7      0.16438613E+02      0.2688253212E-05
        2     8      0.30569930E+02      0.6202167063E-06
        2     9      0.30594996E+02      0.4472554803E-06
        2    10      0.30594996E+02      0.4472554803E-06
        2    11      0.31587059E+02     -0.2601436422E-07
        2    12      0.31587059E+02     -0.2601436422E-07
        2    13      0.38704677E+02     -0.1602575178E-08
        2    14      0.38704677E+02     -0.1602575178E-08
        2    15      0.39505480E+02      0.4389069370E-06
        2    16      0.45379785E+02      0.1481899119E-06
        2    17      0.45379785E+02      0.1481899119E-06
        2    18      0.56664308E+02      0.1592732372E-10
        2    19      0.73282059E+02     -0.9212134838E-09
        2    20      0.76844405E+02     -0.2190992307E-09
        2    21      0.76844405E+02     -0.2190992307E-09
        2    22      0.96553624E+02      0.7183263066E-12
        2    23      0.97153252E+02      0.1553151456E-11
        2    24      0.13008331E+03      0.3497154328E-19
        3     1     -0.72471496E+01      0.0000000000E+00
        3     2     -0.72471496E+01      0.0000000000E+00
        3     3     -0.53031320E+01      0.0000000000E+00
        3     4      0.33531252E+00      0.0000000000E+00
        3     5      0.33531252E+00      0.0000000000E+00
        3     6      0.65782133E+00      0.1793141341E-04
        3     7      0.16451220E+02      0.5326403080E-05
        3     8      0.30565032E+02      0.8920900435E-06
        3     9      0.30565032E+02      0.8920900435E-06
        3    10      0.30570474E+02      0.8920900435E-06
        3    11      0.31602481E+02     -0.5452221849E-06
        3    12      0.31602481E+02     -0.5452221849E-06
        3    13      0.38705684E+02     -0.2494899680E-07
        3    14      0.38705684E+02     -0.2494899680E-07
        3    15      0.39520323E+02      0.1467433637E-05
        3    16      0.45389322E+02      0.7002593207E-07
        3    17      0.45389322E+02      0.7002593207E-07
        3    18      0.56663984E+02      0.9557897310E-10
        3    19      0.73278409E+02     -0.3423535276E-08
        3    20      0.76842750E+02     -0.1004487032E-08
        3    21      0.76842750E+02     -0.1004487032E-08
        3    22      0.96562019E+02      0.2386290835E-11
        3    23      0.97198327E+02      0.4436269052E-11
        3    24      0.13008588E+03      0.1445068062E-18
        4     1     -0.72136616E+01      0.0000000000E+00
        4     2     -0.72136616E+01      0.0000000000E+00
        4     3     -0.53043358E+01      0.0000000000E+00
        4     4      0.50470186E+00      0.0000000000E+00
        4     5      0.50470186E+00      0.0000000000E+00
        4     6      0.98739712E+00      0.2814735975E-04
        4     7      0.16472199E+02      0.7751076458E-05
        4     8      0.30516791E+02      0.6491769844E-06
        4     9      0.30516791E+02      0.6491769844E-06
        4    10      0.30571380E+02      0.4587185693E-05
        4    11      0.31626550E+02     -0.1219404203E-05
        4    12      0.31626550E+02     -0.1219404203E-05
        4    13      0.38707347E+02     -0.5497332942E-07
        4    14      0.38707347E+02     -0.5497332942E-07
        4    15      0.39544955E+02      0.3249839127E-05
        4    16      0.45405169E+02      0.4702659757E-07
        4    17      0.45405169E+02      0.4702659757E-07
        4    18      0.56663444E+02      0.2328425584E-09
        4    19      0.73272328E+02     -0.6983923780E-08
        4    20      0.76839994E+02     -0.2430410270E-08
        4    21      0.76839994E+02     -0.2430410270E-08
        4    22      0.96576945E+02      0.7327461884E-11
        4    23      0.97272341E+02      0.9010476701E-11
        4    24      0.13009016E+03      0.4217814430E-18
        5     1     -0.71668907E+01      0.0000000000E+00
        5     2     -0.71668907E+01      0.0000000000E+00
        5     3     -0.53060201E+01      0.0000000000E+00
        5     4      0.67619660E+00      0.8083837856E-04
        5     5      0.67619660E+00      0.8083837856E-04
        5     6      0.13177518E+01      0.3848572746E-04
        5     7      0.16501503E+02      0.1706465128E-04
        5     8      0.30452205E+02      0.1242408344E-05
        5     9      0.30452205E+02      0.1242408344E-05
        5    10      0.30572643E+02      0.1032401611E-04
        5    11      0.31657434E+02     -0.1860717999E-05
        5    12      0.31657434E+02     -0.1860717999E-05
        5    13      0.38709641E+02     -0.4827916228E-07
        5    14      0.38709641E+02     -0.4827916228E-07
        5    15      0.39579219E+02      0.5634491989E-05
        5    16      0.45427254E+02      0.1703293295E-06
        5    17      0.45427254E+02      0.1703293295E-06
        5    18      0.56662689E+02      0.2675215186E-08
        5    19      0.73263818E+02      0.2878670805E-07
        5    20      0.76836139E+02     -0.3900697940E-08
        5    21      0.76836139E+02     -0.3900697940E-08
        5    22      0.96599330E+02      0.1641892467E-10
        5    23      0.97374100E+02      0.1456378390E-10
        5    24      0.13009617E+03      0.1284795107E-17
        6     1     -0.71069612E+01      0.0000000000E+00
        6     2     -0.71069612E+01      0.0000000000E+00
        6     3     -0.53081842E+01      0.0000000000E+00
        6     4      0.85054576E+00      0.1047762583E-03
        6     5      0.85054576E+00      0.1047762583E-03
        6     6      0.16491146E+01      0.4879405062E-04
        6     7      0.16539064E+02      0.2216411786E-04
        6     8      0.30373174E+02      0.1852073957E-05
        6     9      0.30373174E+02      0.1852073957E-05
        6    10      0.30574260E+02      0.1835126688E-04
        6    11      0.31693369E+02     -0.2764853811E-05
        6    12      0.31693369E+02     -0.2764853811E-05
        6    13      0.38712537E+02     -0.7058104813E-07
        6    14      0.38712537E+02     -0.7058104813E-07
        6    15      0.39622896E+02      0.8495184584E-05
        6    16      0.45455480E+02      0.1735565542E-06
        6    17      0.45455480E+02      0.1735565542E-06
        6    18      0.56661719E+02      0.4532960486E-08
        6    19      0.73252885E+02      0.4776209285E-07
        6    20      0.76831188E+02     -0.6596581949E-08
        6    21      0.76831188E+02     -0.6596581949E-08
        6    22      0.96629918E+02      0.2866195022E-10
        6    23      0.97502493E+02      0.2105526544E-10
        6    24      0.13010389E+03      0.2435196183E-17
        7     1     -0.70340517E+01      0.0000000000E+00
        7     2     -0.70340517E+01      0.0000000000E+00
        7     3     -0.53108268E+01      0.0000000000E+00
        7     4      0.10285369E+01      0.2150818274E-03
        7     5      0.10285369E+01      0.2150818274E-03
        7     6      0.19816897E+01      0.1205137346E-03
        7     7      0.16584798E+02      0.4266719000E-04
        7     8      0.30281317E+02      0.5034568294E-05
        7     9      0.30281317E+02      0.5034568294E-05
        7    10      0.30576225E+02      0.3905179778E-04
        7    11      0.31732905E+02     -0.4484283465E-07
        7    12      0.31732905E+02     -0.4484283465E-07
        7    13      0.38715996E+02      0.9744279055E-07
        7    14      0.38715996E+02      0.9744279055E-07
        7    15      0.39675712E+02      0.3002251186E-04
        7    16      0.45489723E+02      0.4208760473E-06
        7    17      0.45489723E+02      0.4208760473E-06
        7    18      0.56660535E+02      0.1242678966E-07
        7    19      0.73239533E+02      0.7352061005E-07
        7    20      0.76825148E+02     -0.9946006556E-08
        7    21      0.76825148E+02     -0.9946006556E-08
        7    22      0.96669160E+02      0.8531603091E-10
        7    23      0.97656599E+02      0.9083942346E-10
        7    24      0.13011334E+03      0.8193359044E-17
        8     1     -0.69484091E+01      0.0000000000E+00
        8     2     -0.69484091E+01      0.0000000000E+00
        8     3     -0.53139465E+01      0.0000000000E+00
        8     4      0.12110034E+01      0.2396530508E-03
        8     5      0.12110034E+01      0.2396530508E-03
        8     6      0.23156512E+01      0.1439440441E-03
        8     7      0.16638602E+02      0.5495608859E-04
        8     8      0.30177913E+02      0.6855935888E-05
        8     9      0.30177913E+02      0.6855935888E-05
        8    10      0.30578530E+02      0.5861550085E-04
        8    11      0.31774963E+02      0.8711753519E-06
        8    12      0.31774963E+02      0.8711753519E-06
        8    13      0.38719976E+02      0.1786302319E-06
        8    14      0.38719976E+02      0.1786302319E-06
        8    15      0.39737340E+02      0.4286923626E-04
        8    16      0.45529834E+02      0.4450601523E-06
        8    17      0.45529834E+02      0.4450601523E-06
        8    18      0.56659138E+02      0.1835049939E-07
        8    19      0.73223770E+02      0.1050991248E-06
        8    20      0.76818022E+02     -0.1429735534E-07
        8    21      0.76818022E+02     -0.1429735534E-07
        8    22      0.96717236E+02      0.1200814178E-09
        8    23      0.97835668E+02      0.1312609994E-09
        8    24      0.13012453E+03      0.1276669348E-16
        9     1     -0.68503692E+01      0.0000000000E+00
        9     2     -0.68503692E+01      0.0000000000E+00
        9     3     -0.53175418E+01      0.0000000000E+00
        9     4      0.13988293E+01      0.4471155899E-03
        9     5      0.13988293E+01      0.4471155899E-03
        9     6      0.26511395E+01      0.1713389304E-03
        9     7      0.16700361E+02      0.9672447346E-04
        9     8      0.30063937E+02      0.1060262691E-04
        9     9      0.30063937E+02      0.1060262691E-04
        9    10      0.30581168E+02      0.9500274044E-04
        9    11      0.31818794E+02      0.6806548160E-05
        9    12      0.31818794E+02      0.6806548160E-05
        9    13      0.38724430E+02      0.6621378547E-06
        9    14      0.38724430E+02      0.6621378547E-06
        9    15      0.39807405E+02      0.5759262030E-04
        9    16      0.45575645E+02      0.5829811931E-06
        9    17      0.45575645E+02      0.5829811931E-06
        9    18      0.56657530E+02      0.5776796251E-07
        9    19      0.73205602E+02      0.1501655513E-06
        9    20      0.76809819E+02     -0.1934139916E-07
        9    21      0.76809819E+02     -0.1934139916E-07
        9    22      0.96774120E+02      0.1954978444E-09
        9    23      0.98039057E+02      0.1682264084E-09
        9    24      0.13013745E+03      0.2015668602E-16
       10     1     -0.67403802E+01      0.0000000000E+00
       10     2     -0.67403802E+01      0.0000000000E+00
       10     3     -0.53216105E+01      0.0000000000E+00
       10     4      0.15929497E+01      0.3685216321E-03
       10     5      0.15929497E+01      0.3685216321E-03
       10     6      0.29882575E+01      0.1812236479E-03
       10     7      0.16769940E+02      0.1057645718E-03
       10     8      0.29940126E+02      0.8148308134E-05
       10     9      0.29940126E+02      0.8148308134E-05
       10    10      0.30584129E+02      0.1268727405E-03
       10    11      0.31863913E+02      0.6037308493E-05
       10    12      0.31863913E+02      0.6037308493E-05
       10    13      0.38729309E+02      0.7720388788E-06
       10    14      0.38729309E+02      0.7720388788E-06
       10    15      0.39885485E+02      0.6273140311E-04
       10    16      0.45626966E+02      0.4368981131E-06
       10    17      0.45626966E+02      0.4368981131E-06
       10    18      0.56655711E+02      0.7356890000E-07
       10    19      0.73185040E+02      0.1689998927E-06
       10    20      0.76800545E+02     -0.2599528191E-07
       10    21      0.76800545E+02     -0.2599528191E-07
       10    22      0.96839649E+02      0.2375816068E-09
       10    23      0.98266172E+02      0.1773570307E-09
       10    24      0.13015213E+03      0.2777958439E-16
       11     1     -0.66190329E+01      0.0000000000E+00
       11     2     -0.66190329E+01      0.0000000000E+00
       11     3     -0.53261504E+01      0.0000000000E+00
       11     4      0.17943446E+01      0.4587700151E-03
       11     5      0.17943446E+01      0.4587700151E-03
       11     6      0.33270688E+01      0.2661395128E-03
       11     7      0.16847193E+02      0.2129258455E-03
       11     8      0.29807045E+02      0.1984147250E-04
       11     9      0.29807045E+02      0.1984147250E-04
       11    10      0.30587404E+02      0.2131905639E-03
       11    11      0.31910024E+02      0.1474023104E-04
       11    12      0.31910024E+02      0.1474023104E-04
       11    13      0.38734564E+02      0.1938027227E-05
       11    14      0.38734564E+02      0.1938027227E-05
       11    15      0.39971124E+02      0.7924189918E-04
       11    16      0.45683591E+02      0.7512608434E-06
       11    17      0.45683591E+02      0.7512608434E-06
       11    18      0.56653683E+02      0.1312551874E-06
       11    19      0.73162094E+02      0.2007614361E-06
       11    20      0.76790210E+02     -0.3181105175E-07
       11    21      0.76790210E+02     -0.3181105175E-07
       11    22      0.96913570E+02      0.5209432207E-09
       11    23      0.98516416E+02      0.1934953286E-09
       11    24      0.13016856E+03      0.7866028476E-16
       12     1     -0.64870942E+01      0.0000000000E+00
       12     2     -0.64870942E+01      0.0000000000E+00
       12     3     -0.53311591E+01      0.0000000000E+00
       12     4      0.20040231E+01      0.5202030038E-03
       12     5      0.20040231E+01      0.5202030038E-03
       12     6      0.36675962E+01      0.4028789289E-03
       12     7      0.16931964E+02      0.3286237620E-03
       12     8      0.29665140E+02      0.3236954331E-04
       12     9      0.29665140E+02      0.3236954331E-04
       12    10      0.30590980E+02      0.3277956500E-03
       12    11      0.31956966E+02      0.4352251586E-04
       12    12      0.31956966E+02      0.4352251586E-04
       12    13      0.38740147E+02      0.4244542520E-05
       12    14      0.38740147E+02      0.4244542520E-05
       12    15      0.40063831E+02      0.1298903079E-03
       12    16      0.45745297E+02      0.1327598416E-05
       12    17      0.45745297E+02      0.1327598416E-05
       12    18      0.56651448E+02      0.2309809110E-06
       12    19      0.73136776E+02      0.2638370501E-06
       12    20      0.76778824E+02     -0.3725561625E-07
       12    21      0.76778824E+02     -0.3725561625E-07
       12    22      0.96995571E+02      0.8192758185E-09
       12    23      0.98789164E+02      0.3108230999E-09
       12    24      0.13018676E+03      0.1760619416E-15
       13     1     -0.63455429E+01      0.0000000000E+00
       13     2     -0.63455429E+01      0.0000000000E+00
       13     3     -0.53366337E+01      0.0000000000E+00
       13     4      0.22229951E+01      0.3253978615E-03
       13     5      0.22229951E+01      0.3253978615E-03
       13     6      0.40098211E+01      0.4840578850E-03
       13     7      0.17024084E+02      0.4224261339E-03
       13     8      0.29514775E+02      0.4024160766E-04
       13     9      0.29514775E+02      0.4024160766E-04
       13    10      0.30594845E+02      0.4970025737E-03
       13    11      0.32004669E+02      0.8640093921E-04
       13    12      0.32004669E+02      0.8640093921E-04
       13    13      0.38746012E+02      0.7505266947E-05
       13    14      0.38746012E+02      0.7505266947E-05
       13    15      0.40163087E+02      0.1291763682E-03
       13    16      0.45811853E+02      0.1522784016E-05
       13    17      0.45811853E+02      0.1522784016E-05
       13    18      0.56649008E+02      0.3696989484E-06
       13    19      0.73109098E+02      0.3381701220E-06
       13    20      0.76766397E+02     -0.4227761127E-07
       13    21      0.76766397E+02     -0.4227761127E-07
       13    22      0.97085310E+02      0.1150171603E-08
       13    23      0.99083745E+02      0.3047221584E-09
       13    24      0.13020673E+03      0.2355599365E-15
       14     1     -0.61956030E+01      0.0000000000E+00
       14     2     -0.61956030E+01      0.0000000000E+00
       14     3     -0.53425710E+01      0.0000000000E+00
       14     4      0.24522252E+01     -0.3346087471E-03
       14     5      0.24522252E+01     -0.3346087471E-03
       14     6      0.43536839E+01      0.5234023914E-03
       14     7      0.17123374E+02      0.4869964937E-03
       14     8      0.29356265E+02      0.3341952288E-04
       14     9      0.29356265E+02      0.3341952288E-04
       14    10      0.30598985E+02      0.6186418026E-03
       14    11      0.32053124E+02      0.1114622046E-03
       14    12      0.32053124E+02      0.1114622046E-03
       14    13      0.38752118E+02      0.9230085237E-05
       14    14      0.38752118E+02      0.9230085237E-05
       14    15      0.40268352E+02      0.1432657773E-03
       14    16      0.45883013E+02      0.1724483896E-05
       14    17      0.45883013E+02      0.1724483896E-05
       14    18      0.56646365E+02      0.4734101267E-06
       14    19      0.73079077E+02      0.2836515760E-06
       14    20      0.76752941E+02     -0.5737671600E-07
       14    21      0.76752941E+02     -0.5737671600E-07
       14    22      0.97182417E+02      0.1327387413E-08
       14    23      0.99399436E+02      0.3444979603E-09
       14    24      0.13022849E+03      0.3086288877E-15
       15     1     -0.60387678E+01      0.0000000000E+00
       15     2     -0.60387678E+01      0.0000000000E+00
       15     3     -0.53489677E+01      0.0000000000E+00
       15     4      0.26925678E+01     -0.1343973652E-02
       15     5      0.26925678E+01     -0.1343973652E-02
       15     6      0.46990852E+01      0.6960208304E-03
       15     7      0.17229651E+02      0.7409291361E-03
       15     8      0.29189890E+02      0.2421148467E-04
       15     9      0.29189890E+02      0.2421148467E-04
       15    10      0.30603386E+02      0.1103253680E-02
       15    11      0.32102357E+02      0.1748880010E-03
       15    12      0.32102357E+02      0.1748880010E-03
       15    13      0.38758427E+02      0.1466225264E-04
       15    14      0.38758427E+02      0.1466225264E-04
       15    15      0.40379072E+02      0.1882129339E-03
       15    16      0.45958528E+02      0.2745756672E-05
       15    17      0.45958528E+02      0.2745756672E-05
       15    18      0.56643521E+02      0.9293412757E-06
       15    19      0.73046727E+02      0.3765956660E-07
       15    20      0.76738470E+02     -0.7859952749E-07
       15    21      0.76738470E+02     -0.7859952749E-07
       15    22      0.97286510E+02      0.1895371141E-08
       15    23      0.99735457E+02      0.4092981216E-09
       15    24      0.13025205E+03      0.5616363504E-15
       16     1     -0.58768030E+01      0.0000000000E+00
       16     2     -0.58768030E+01      0.0000000000E+00
       16     3     -0.53558198E+01      0.0000000000E+00
       16     4      0.29446837E+01     -0.6393061372E-02
       16     5      0.29446837E+01     -0.6393061372E-02
       16     6      0.50458877E+01      0.7385809657E-03
       16     7      0.17342724E+02      0.8118631299E-03
       16     8      0.29015908E+02      0.1561193414E-04
       16     9      0.29015908E+02      0.1561193414E-04
       16    10      0.30608032E+02      0.1288029105E-02
       16    11      0.32152419E+02      0.1997087287E-03
       16    12      0.32152419E+02      0.1997087287E-03
       16    13      0.38764907E+02      0.1646660141E-04
       16    14      0.38764907E+02      0.1646660141E-04
       16    15      0.40494679E+02      0.1280445659E-03
       16    16      0.46038142E+02      0.2134765091E-05
       16    17      0.46038142E+02      0.2134765091E-05
       16    18      0.56640479E+02      0.1121569623E-05
       16    19      0.73012067E+02      0.5171095535E-07
       16    20      0.76722996E+02     -0.1264728542E-06
       16    21      0.76722996E+02     -0.1264728542E-06
       16    22      0.97397196E+02      0.2064439609E-08
       16    23      0.10009097E+03      0.3200749251E-09
       16    24      0.13027741E+03      0.7014588370E-15
       17     1     -0.57117200E+01      0.0000000000E+00
       17     2     -0.57117200E+01      0.0000000000E+00
       17     3     -0.53631235E+01      0.0000000000E+00
       17     4      0.32089440E+01     -0.9598668228E-02
       17     5      0.32089440E+01     -0.9598668228E-02
       17     6      0.53939182E+01      0.7670777939E-03
       17     7      0.17462399E+02      0.8690632828E-03
       17     8      0.28834565E+02      0.1512924087E-04
       17     9      0.28834565E+02      0.1512924087E-04
       17    10      0.30612906E+02      0.1532638961E-02
       17    11      0.32203369E+02      0.2508977702E-03
       17    12      0.32203369E+02      0.2508977702E-03
       17    13      0.38771531E+02      0.2044513704E-04
       17    14      0.38771531E+02      0.2044513704E-04
       17    15      0.40614601E+02      0.8775393228E-04
       17    16      0.46121595E+02      0.2626296882E-05
       17    17      0.46121595E+02      0.2626296882E-05
       17    18      0.56637240E+02      0.1363260281E-05
       17    19      0.72975115E+02      0.1148892268E-06
       17    20      0.76706535E+02     -0.1367164002E-06
       17    21      0.76706535E+02     -0.1367164002E-06
       17    22      0.97514073E+02      0.2261645680E-08
       17    23      0.10046510E+03      0.2591351401E-09
       17    24      0.13030458E+03      0.8709357524E-15
       18     1     -0.55457066E+01      0.0000000000E+00
       18     2     -0.55457066E+01      0.0000000000E+00
       18     3     -0.53708741E+01      0.0000000000E+00
       18     4      0.34853359E+01     -0.1365379237E-01
       18     5      0.34853359E+01     -0.1365379237E-01
       18     6      0.57429707E+01      0.8151082928E-03
       18     7      0.17588479E+02      0.9199173479E-03
       18     8      0.28646098E+02      0.1446882097E-04
       18     9      0.28646098E+02      0.1446882097E-04
       18    10      0.30617992E+02      0.1808974133E-02
       18    11      0.32255273E+02      0.3100892203E-03
       18    12      0.32255273E+02      0.3100892203E-03
       18    13      0.38778279E+02      0.2512939959E-04
       18    14      0.38778279E+02      0.2512939959E-04
       18    15      0.40738264E+02      0.7324840076E-04
       18    16      0.46208628E+02      0.3252700460E-05
       18    17      0.46208628E+02      0.3252700460E-05
       18    18      0.56633809E+02      0.1638455665E-05
       18    19      0.72935893E+02      0.1915557227E-06
       18    20      0.76689103E+02     -0.1450978094E-06
       18    21      0.76689103E+02     -0.1450978094E-06
       18    22      0.97636733E+02      0.2444573388E-08
       18    23      0.10085691E+03      0.2627366997E-09
       18    24      0.13033357E+03      0.1066801967E-14
       19     1     -0.53810154E+01      0.0000000000E+00
       19     2     -0.53810154E+01      0.0000000000E+00
       19     3     -0.53790670E+01      0.0000000000E+00
       19     4      0.37733914E+01     -0.1854694580E-01
       19     5      0.37733914E+01     -0.1854694580E-01
       19     6      0.60928096E+01      0.8912136850E-03
       19     7      0.17720765E+02      0.9782775924E-03
       19     8      0.28450740E+02      0.1405104902E-04
       19     9      0.28450740E+02      0.1405104902E-04
       19    10      0.30623271E+02      0.2141829740E-02
       19    11      0.32308192E+02      0.3862720244E-03
       19    12      0.32308192E+02      0.3862720244E-03
       19    13      0.38785139E+02      0.3101893386E-04
       19    14      0.38785139E+02      0.3101893386E-04
       19    15      0.40865097E+02      0.7258611535E-04
       19    16      0.46298981E+02      0.4049314814E-05
       19    17      0.46298981E+02      0.4049314814E-05
       19    18      0.56630188E+02      0.2026154537E-05
       19    19      0.72894421E+02      0.2853776465E-06
       19    20      0.76670717E+02     -0.1503963446E-06
       19    21      0.76670717E+02     -0.1503963446E-06
       19    22      0.97764763E+02      0.2696471481E-08
       19    23      0.10126543E+03      0.2951803544E-09
       19    24      0.13036438E+03      0.1298936354E-14
       20     1     -0.53876969E+01      0.0000000000E+00
       20     2     -0.52198191E+01      0.0000000000E+00
       20     3     -0.52198191E+01      0.0000000000E+00
       20     4      0.40721607E+01     -0.5672569473E-01
       20     5      0.40721607E+01     -0.5672569473E-01
       20     6      0.64431731E+01      0.1019306648E-02
       20     7      0.17859059E+02      0.1048300044E-02
       20     8      0.28248720E+02     -0.4506082149E-04
       20     9      0.28248720E+02     -0.4506082149E-04
       20    10      0.30628724E+02      0.2574498081E-02
       20    11      0.32362187E+02      0.3481378077E-03
       20    12      0.32362187E+02      0.3481378077E-03
       20    13      0.38792102E+02      0.3283930790E-04
       20    14      0.38792102E+02      0.3283930790E-04
       20    15      0.40994537E+02      0.4630023132E-04
       20    16      0.46392398E+02      0.4499057628E-05
       20    17      0.46392398E+02      0.4499057628E-05
       20    18      0.56626380E+02      0.2676246529E-05
       20    19      0.72850725E+02      0.2457312000E-06
       20    20      0.76651394E+02     -0.3825802559E-06
       20    21      0.76651394E+02     -0.3825802559E-06
       20    22      0.97897744E+02      0.3139856924E-08
       20    23      0.10168964E+03      0.3044486134E-09
       20    24      0.13039703E+03      0.1585480959E-14
       21     1     -0.53967584E+01      0.0000000000E+00
       21     2     -0.50640582E+01      0.0000000000E+00
       21     3     -0.50640582E+01      0.0000000000E+00
       21     4      0.43802468E+01     -0.7088752369E-01
       21     5      0.43802468E+01     -0.7088752369E-01
       21     6      0.67937765E+01      0.1076441256E-02
       21     7      0.18003165E+02      0.1054394585E-02
       21     8      0.28040265E+02     -0.5736352034E-04
       21     9      0.28040265E+02     -0.5736352034E-04
       21    10      0.30634332E+02      0.2956719258E-02
       21    11      0.32417307E+02      0.4277411419E-03
       21    12      0.32417307E+02      0.4277411419E-03
       21    13      0.38799167E+02      0.3967820797E-04
       21    14      0.38799167E+02      0.3967820797E-04
       21    15      0.41126031E+02      0.3842952646E-04
       21    16      0.46488627E+02      0.5571842133E-05
       21    17      0.46488627E+02      0.5571842133E-05
       21    18      0.56622388E+02      0.3126061093E-05
       21    19      0.72804829E+02      0.3560128084E-06
       21    20      0.76631153E+02     -0.4023164227E-06
       21    21      0.76631153E+02     -0.4023164227E-06
       21    22      0.98035255E+02      0.3284124168E-08
       21    23      0.10212851E+03      0.3340240338E-09
       21    24      0.13043151E+03      0.1868213059E-14
       22     1     -0.54062455E+01      0.0000000000E+00
       22     2     -0.49153106E+01      0.0000000000E+00
       22     3     -0.49153106E+01      0.0000000000E+00
       22     4      0.46959019E+01     -0.9815156942E-01
       22     5      0.46959019E+01     -0.9815156942E-01
       22     6      0.71443167E+01      0.1288335176E-02
       22     7      0.18152886E+02      0.1190332668E-02
       22     8      0.27825598E+02     -0.6871667213E-04
       22     9      0.27825598E+02     -0.6871667213E-04
       22    10      0.30640074E+02      0.3648711187E-02
       22    11      0.32473597E+02      0.5928185021E-03