
&CONTROL
    calculation   = 'vc-relax'
    restart_mode  = 'from_scratch'
    prefix        = 'Landau_35'
    pseudo_dir    = '/cluster/scratch/mnoe/QE/pps'
    outdir        = './'
    forc_conv_thr = 1.0d-7
    etot_conv_thr = 1.0d-7

/
&SYSTEM
    ibrav       = 0
    nat         = 32
    ntyp        = 2
    ecutwfc     = 120
    occupations = 'smearing'
    degauss     = 7.35d-4
    tot_charge  = -0.0
/
&ELECTRONS
    conv_thr    = 1.0d-8
    diagonalization = 'david'
/


&IONS
ion_dynamics = 'bfgs'
/

&CELL
cell_dynamics = 'bfgs'
cell_dofree = 'all'
/
CELL_PARAMETERS angstrom
        7.3236460686         0.0000000000         0.0000000000
        0.0000000000         7.7495899200         0.0000000000
        0.0000000000         0.0000000000         7.3236460686

ATOMIC_SPECIES
W 183.84 W_ONCV_LDA-4.0.upf
O 15.9994 O_ONCV_LDA-3.0.upf

ATOMIC_POSITIONS crystal
W 0.25	0.2679306255943048	0.0	 0 0 0
W 0.7499999259562321	0.7320693744056952	0.0	 0 0 0
W 0.25	0.23206939403343044	0.5	 0 0 0
W 0.7499999259562321	0.7679307380541053	0.5	 0 0 0
W 0.7499999259562321	0.2679306255943048	0.5	 0 0 0
W 0.25	0.7320693744056952	0.5	 0 0 0
W 0.7499999259562321	0.23206939403343044	0.0	 0 0 0
W 0.25	0.7679307380541053	0.0	 0 0 0
O 0.25	0.004525224498954077	0.0	 0 0 0
O 0.7499999259562321	0.9954747013186005	0.0	 0 0 0
O 0.25	0.4954748137784009	0.5	 0 0 0
O 0.7499999259562321	0.5045252986813995	0.5	 0 0 0
O 0.7499999259562321	0.004525224498954077	0.5	 0 0 0
O 0.25	0.9954747013186005	0.5	 0 0 0
O 0.7499999259562321	0.4954748137784009	0.0	 0 0 0
O 0.25	0.5045252986813995	0.0	 0 0 0
O 0.5	0.25	0.4836000724638557	 0 0 0
O 0.5	0.7500000544160326	0.5164000472514154	 0 0 0
O 0.0	0.25	0.9836001054638557	 0 0 0
O 0.0	0.7500000544160326	0.016399813959550327	 0 0 0
O 0.5	0.25	0.016399813959550327	 0 0 0
O 0.5	0.7500000544160326	0.9836001054638557	 0 0 0
O 0.0	0.25	0.5164000472514154	 0 0 0
O 0.0	0.7500000544160326	0.4836000724638557	 0 0 0
O 0.7336000267923525	0.25	0.7499999259562321	 0 0 0
O 0.2663998534923761	0.7500000544160326	0.25	 0 0 0
O 0.7664001212951833	0.25	0.25	 0 0 0
O 0.23360008846385572	0.7500000544160326	0.7499999259562321	 0 0 0
O 0.2663998534923761	0.25	0.7499999259562321	 0 0 0
O 0.7336000267923525	0.7500000544160326	0.25	 0 0 0
O 0.23360008846385572	0.25	0.25	 0 0 0
O 0.7664001212951833	0.7500000544160326	0.7499999259562321	 0 0 0

K_POINTS automatic
6 6 6 0 0 0
