
&CONTROL
    calculation   = 'vc-relax'
    restart_mode  = 'from_scratch'
    prefix        = 'Landau_15'
    pseudo_dir    = '/cluster/scratch/mnoe/QE/pps'
    outdir        = './'
    forc_conv_thr = 1.0d-7
    etot_conv_thr = 1.0d-7

/
&SYSTEM
    ibrav       = 0
    nat         = 32
    ntyp        = 2
    ecutwfc     = 120
    occupations = 'smearing'
    degauss     = 7.35d-4
    tot_charge  = -0.0
/
&ELECTRONS
    conv_thr    = 1.0d-8
    diagonalization = 'david'
/


&IONS
ion_dynamics = 'bfgs'
/

&CELL
cell_dynamics = 'bfgs'
cell_dofree = 'all'
/
CELL_PARAMETERS angstrom
        7.3236460686         0.0000000000         0.0000000000
        0.0000000000         7.7495899200         0.0000000000
        0.0000000000         0.0000000000         7.3236460686

ATOMIC_SPECIES
W 183.84 W_ONCV_LDA-4.0.upf
O 15.9994 O_ONCV_LDA-3.0.upf

ATOMIC_POSITIONS crystal
W 0.2386852122023257	0.2702349584255565	-0.00504247417276628	 0 0 0
W 0.7456131915374282	0.7297650415744436	-0.011584777001312687	 0 0 0
W 0.2613147877976743	0.22976506043661388	0.4949575200601173	 0 0 0
W 0.7543866952089847	0.7702350471528441	0.48841520918007714	 0 0 0
W 0.7613147183259397	0.2702349584255565	0.5050424799398827	 0 0 0
W 0.254386758314422	0.7297650415744436	0.5115847908199228	 0 0 0
W 0.7386851684204733	0.22976506043661388	0.005042478479379192	 0 0 0
W 0.24561324168557802	0.7702350471528441	0.011584781307925599	 0 0 0
O 0.24116919100150205	0.00515299310049361	-0.014320782496117738	 0 0 0
O 0.7539504030765602	-0.005153051206075497	-0.016354254082180608	 0 0 0
O 0.25883079117286534	0.49484703752121206	0.48567919780580926	 0 0 0
O 0.7460494701882819	0.5051530512060755	0.4836457310880914	 0 0 0
O 0.758830734883111	0.00515299310049361	0.5143208032053086	 0 0 0
O 0.24604951112402484	-0.005153051206075497	0.5163542699230264	 0 0 0
O 0.741169138381731	0.49484703752121206	0.014320781185409465	 0 0 0
O 0.2539504710503425	0.5051530512060755	0.016354252771472337	 0 0 0
O 0.5043942383393354	0.2400112805234863	0.4779655252970992	 0 0 0
O 0.5024993256577412	0.7531221603179576	0.5220345691545293	 0 0 0
O -0.0043942153083184905	0.2599887138591925	0.9779655582970992	 0 0 0
O -0.0024993058098729754	0.7468779641943294	0.022034382562124907	 0 0 0
O 0.49560576166066456	0.2400112805234863	0.022034382562124907	 0 0 0
O 0.49750067434225875	0.7531221603179576	0.9779655582970992	 0 0 0
O 0.004394228977133423	0.2599887138591925	0.5220345691545293	 0 0 0
O 0.0024993194786879086	0.7468779641943294	0.4779655252970992	 0 0 0
O 0.7279654926401997	0.2643024352016057	0.7508376890868543	 0 0 0
O 0.2720344129081716	0.7671635951533133	0.25371005438397065	 0 0 0
O 0.7720346309492584	0.23569755131682343	0.250837748222718	 0 0 0
O 0.2279655412970992	0.732836529096832	0.7537100074189697	 0 0 0
O 0.2720344129081716	0.2643024352016057	0.7491622246227004	 0 0 0
O 0.7279654926401997	0.7671635951533133	0.24628995778689197	 0 0 0
O 0.2279655412970992	0.23569755131682343	0.24916226394814464	 0 0 0
O 0.7720346309492584	0.732836529096832	0.7462899062905851	 0 0 0

K_POINTS automatic
6 6 6 0 0 0
