
&CONTROL
    calculation   = 'vc-relax'
    restart_mode  = 'from_scratch'
    prefix        = 'Landau_33'
    pseudo_dir    = '/cluster/scratch/mnoe/QE/pps'
    outdir        = './'
    forc_conv_thr = 1.0d-7
    etot_conv_thr = 1.0d-7

/
&SYSTEM
    ibrav       = 0
    nat         = 32
    ntyp        = 2
    ecutwfc     = 120
    occupations = 'smearing'
    degauss     = 7.35d-4
    tot_charge  = -0.0
/
&ELECTRONS
    conv_thr    = 1.0d-8
    diagonalization = 'david'
/


&IONS
ion_dynamics = 'bfgs'
/

&CELL
cell_dynamics = 'bfgs'
cell_dofree = 'all'
/
CELL_PARAMETERS angstrom
        7.3236460686         0.0000000000         0.0000000000
        0.0000000000         7.7495899200         0.0000000000
        0.0000000000         0.0000000000         7.3236460686

ATOMIC_SPECIES
W 183.84 W_ONCV_LDA-4.0.upf
O 15.9994 O_ONCV_LDA-3.0.upf

ATOMIC_POSITIONS crystal
W 0.25	0.2772599147345627	0.0	 0 0 0
W 0.7499999755475167	0.7227400852654373	0.0	 0 0 0
W 0.25	0.22274010179371748	0.5	 0 0 0
W 0.7499999755475167	0.777259931111249	0.5	 0 0 0
W 0.7499999755475167	0.2772599147345627	0.5	 0 0 0
W 0.25	0.7227400852654373	0.5	 0 0 0
W 0.7499999755475167	0.22274010179371748	0.0	 0 0 0
W 0.25	0.777259931111249	0.0	 0 0 0
O 0.25	0.0070667995342567624	0.0	 0 0 0
O 0.7499999755475167	0.992933191371859	0.0	 0 0 0
O 0.25	0.4929332077485453	0.5	 0 0 0
O 0.7499999755475167	0.507066808628141	0.5	 0 0 0
O 0.7499999755475167	0.0070667995342567624	0.5	 0 0 0
O 0.25	0.992933191371859	0.5	 0 0 0
O 0.7499999755475167	0.4929332077485453	0.0	 0 0 0
O 0.25	0.507066808628141	0.0	 0 0 0
O 0.5	0.25	0.46078812491002114	 0 0 0
O 0.5	0.7500000079242031	0.5392118925232255	 0 0 0
O 0.0	0.25	0.9607881579100211	 0 0 0
O 0.0	0.7500000079242031	0.03921184829813312	 0 0 0
O 0.5	0.25	0.03921184829813312	 0 0 0
O 0.5	0.7500000079242031	0.9607881579100211	 0 0 0
O 0.0	0.25	0.5392118925232255	 0 0 0
O 0.0	0.7500000079242031	0.46078812491002114	 0 0 0
O 0.7107881319292577	0.25	0.7499999755475167	 0 0 0
O 0.28921185063749555	0.7500000079242031	0.25	 0 0 0
O 0.7892119169757088	0.25	0.25	 0 0 0
O 0.21078814091002113	0.7500000079242031	0.7499999755475167	 0 0 0
O 0.28921185063749555	0.25	0.7499999755475167	 0 0 0
O 0.7107881319292577	0.7500000079242031	0.25	 0 0 0
O 0.21078814091002113	0.25	0.25	 0 0 0
O 0.7892119169757088	0.7500000079242031	0.7499999755475167	 0 0 0

K_POINTS automatic
6 6 6 0 0 0
