
&CONTROL
    calculation   = 'vc-relax'
    restart_mode  = 'from_scratch'
    prefix        = 'Landau_25'
    pseudo_dir    = '/cluster/scratch/mnoe/QE/pps'
    outdir        = './'
    forc_conv_thr = 1.0d-7
    etot_conv_thr = 1.0d-7

/
&SYSTEM
    ibrav       = 0
    nat         = 32
    ntyp        = 2
    ecutwfc     = 120
    occupations = 'smearing'
    degauss     = 7.35d-4
    tot_charge  = -0.0
/
&ELECTRONS
    conv_thr    = 1.0d-8
    diagonalization = 'david'
/


&IONS
ion_dynamics = 'bfgs'
/

&CELL
cell_dynamics = 'bfgs'
cell_dofree = 'all'
/
CELL_PARAMETERS angstrom
        7.3236460686         0.0000000000         0.0000000000
        0.0000000000         7.7495899200         0.0000000000
        0.0000000000         0.0000000000         7.3236460686

ATOMIC_SPECIES
W 183.84 W_ONCV_LDA-4.0.upf
O 15.9994 O_ONCV_LDA-3.0.upf

ATOMIC_POSITIONS crystal
W 0.24711264733302257	0.27204229946864383	0.0027265975124026102	 0 0 0
W 0.7528872978262073	0.7279577005313561	-0.0027265939227209247	 0 0 0
W 0.2528873526669774	0.22795771879307644	0.5027265990731338	 0 0 0
W 0.7471125977987384	0.7720423695819778	0.4972734009268662	 0 0 0
W 0.7528872978262073	0.27204229946864383	0.4972734009268662	 0 0 0
W 0.24711264733302257	0.7279577005313561	0.5027265990731338	 0 0 0
W 0.7471125977987384	0.22795771879307644	-0.0027265939227209247	 0 0 0
W 0.2528873526669774	0.7720423695819778	0.0027265975124026102	 0 0 0
O 0.24467322248326898	0.0056453663999304175	0.0008474770260371578	 0 0 0
O 0.7553267176816212	-0.005645411896059837	-0.0008474781185489715	 0 0 0
O 0.2553267750195612	0.4943546582172741	0.5008474729681361	 0 0 0
O 0.7446731779433245	0.5056454118960598	0.49915252188145104	 0 0 0
O 0.7553267176816212	0.0056453663999304175	0.49915252188145104	 0 0 0
O 0.24467322248326898	-0.005645411896059837	0.5008474729681361	 0 0 0
O 0.7446731779433245	0.4943546582172741	-0.0008474781185489715	 0 0 0
O 0.2553267750195612	0.5056454118960598	0.0008474770260371578	 0 0 0
O 0.5007897312212826	0.24453588032521476	0.47354622083917536	 0 0 0
O 0.49921026877871744	0.7554641559416888	0.5264538537975992	 0 0 0
O -0.0007897363716954142	0.25546411499259175	0.9735462538391754	 0 0 0
O 0.0007897234176266897	0.7445359212743118	0.026453703832652	 0 0 0
O 0.49921026877871744	0.24453588032521476	0.026453703832652	 0 0 0
O 0.5007897312212826	0.7554641559416888	0.9735462538391754	 0 0 0
O 0.0007897234176266897	0.25546411499259175	0.5264538537975992	 0 0 0
O -0.0007897363716954142	0.7445359212743118	0.47354622083917536	 0 0 0
O 0.7235461983899278	0.2488076016972431	0.7488028691890793	 0 0 0
O 0.2764537269732973	0.751192439407927	0.25119707862339347	 0 0 0
O 0.7764539059851264	0.25119239830275686	0.24880293152135913	 0 0 0
O 0.2235462368391754	0.7488076379641466	0.7511970264358664	 0 0 0
O 0.2764537269732973	0.2488076016972431	0.7511970264358664	 0 0 0
O 0.7235461983899278	0.751192439407927	0.24880293152135913	 0 0 0
O 0.2235462368391754	0.25119239830275686	0.25119707862339347	 0 0 0
O 0.7764539059851264	0.7488076379641466	0.7488028691890793	 0 0 0

K_POINTS automatic
6 6 6 0 0 0
