
&CONTROL
    calculation   = 'vc-relax'
    restart_mode  = 'from_scratch'
    prefix        = 'Landau_3'
    pseudo_dir    = '/cluster/scratch/mnoe/QE/pps'
    outdir        = './'
    forc_conv_thr = 1.0d-7
    etot_conv_thr = 1.0d-7

/
&SYSTEM
    ibrav       = 0
    nat         = 32
    ntyp        = 2
    ecutwfc     = 120
    occupations = 'smearing'
    degauss     = 7.35d-4
    tot_charge  = -0.0
/
&ELECTRONS
    conv_thr    = 1.0d-8
    diagonalization = 'david'
/


&IONS
ion_dynamics = 'bfgs'
/

&CELL
cell_dynamics = 'bfgs'
cell_dofree = 'all'
/
CELL_PARAMETERS angstrom
        7.3236460686         0.0000000000         0.0000000000
        0.0000000000         7.7495899200         0.0000000000
        0.0000000000         0.0000000000         7.3236460686

ATOMIC_SPECIES
W 183.84 W_ONCV_LDA-4.0.upf
O 15.9994 O_ONCV_LDA-3.0.upf

ATOMIC_POSITIONS crystal
W 0.25269997899999996	0.28287880192000003	0.250080009	 0 0 0
W -0.2500800230000001	0.71712119808	-0.7473000050000003	 0 0 0
W 0.247300038	0.21712121172999999	0.75007999	 0 0 0
W 0.7500800089999999	0.78287877092	0.752699962	 0 0 0
W 0.747299991	0.28287880192000003	0.749919993	 0 0 0
W 0.250080007	0.71712119808	0.747300021	 0 0 0
W -0.24730000500000016	0.21712121172999999	-0.7500800230000002	 0 0 0
W 0.24992000999999997	0.78287877092	0.24729999100000005	 0 0 0
O 0.252969982	0.010247800089999998	0.25215000499999995	 0 0 0
O -0.252149995	0.9897522253400001	-0.7470299850000002	 0 0 0
O 0.24702996900000002	0.48975219155	0.7521500110000001	 0 0 0
O 0.752150005	0.51024778024	0.752969998	 0 0 0
O 0.747029995	0.010247800089999998	0.747849972	 0 0 0
O 0.252149995	0.9897522253400001	0.7470299850000001	 0 0 0
O -0.24702998500000006	0.48975219155	-0.7521499950000001	 0 0 0
O 0.24784995599999998	0.51024778024	0.247029995	 0 0 0
O 0.4990399900000001	0.25320000600000003	0.7048059076	 0 0 0
O 0.49979997600000015	0.747939944	0.79519406525	 0 0 0
O -0.9990399409999999	0.24679999400000002	1.20480593628	 0 0 0
O 0.00020002699999999022	0.7520599049999999	0.29519411236	 0 0 0
O 0.50096001	0.25320000600000003	0.29519411236	 0 0 0
O 0.500200024	0.747939944	1.20480593628	 0 0 0
O -0.0009600559999999882	0.24679999400000002	0.79519406525	 0 0 0
O -1.000200024	0.7520599049999999	0.7048059076	 0 0 0
O 0.7048059435699999	0.24794000400000005	2.0002000239999997	 0 0 0
O 0.29519409672	0.7467999329999999	0.49903999	 0 0 0
O 0.79519406228	0.252059996	0.5002000729999999	 0 0 0
O 0.20480592368999995	0.7531999159999999	1.99903999	 0 0 0
O 0.29519409672	0.24794000400000005	0.9998000220000002	 0 0 0
O 0.70480594357	0.7467999329999999	0.500960059	 0 0 0
O 0.20480592369	0.252059996	0.49979997600000003	 0 0 0
O 0.79519406228	0.7531999159999999	1.0009600559999998	 0 0 0

K_POINTS automatic
6 6 6 0 0 0
