
&CONTROL
    calculation   = 'vc-relax'
    restart_mode  = 'from_scratch'
    prefix        = 'Landau_20'
    pseudo_dir    = '/cluster/scratch/mnoe/QE/pps'
    outdir        = './'
    forc_conv_thr = 1.0d-7
    etot_conv_thr = 1.0d-7

/
&SYSTEM
    ibrav       = 0
    nat         = 32
    ntyp        = 2
    ecutwfc     = 120
    occupations = 'smearing'
    degauss     = 7.35d-4
    tot_charge  = -0.0
/
&ELECTRONS
    conv_thr    = 1.0d-8
    diagonalization = 'david'
/


&IONS
ion_dynamics = 'bfgs'
/

&CELL
cell_dynamics = 'bfgs'
cell_dofree = 'all'
/
CELL_PARAMETERS angstrom
        7.3236460686         0.0000000000         0.0000000000
        0.0000000000         7.7495899200         0.0000000000
        0.0000000000         0.0000000000         7.3236460686

ATOMIC_SPECIES
W 183.84 W_ONCV_LDA-4.0.upf
O 15.9994 O_ONCV_LDA-3.0.upf

ATOMIC_POSITIONS crystal
W 0.258669995	0.2797335273280055	-0.990880012	 0 0 0
W 0.7408800005899637	0.7202664726719945	-0.991330038	 0 0 0
W 0.241330005	0.22026648838512175	-0.490879996	 0 0 0
W 0.7591199435899637	0.7797335494349508	-0.491330005	 0 0 0
W 0.7413300265899637	0.2797335273280055	-0.509119988	 0 0 0
W 0.259119988	0.7202664726719945	-0.508669995	 0 0 0
W 0.7586699835899637	0.22026648838512175	-1.009119955	 0 0 0
W 0.240879996	0.7797335494349508	-1.008669995	 0 0 0
O 0.268479998	0.007745217649100585	-0.981609978	 0 0 0
O 0.7316099665899638	0.9922547803752267	-0.981519986	 0 0 0
O 0.231520002	0.49225480248217207	-0.48160999400000004	 0 0 0
O 0.7683899785899637	0.5077452196247733	-0.481520002	 0 0 0
O 0.7315199745899638	0.007745217649100585	-0.518390006	 0 0 0
O 0.268390006	0.9922547803752267	-0.518479998	 0 0 0
O 0.7684799705899638	0.49225480248217207	-1.01838999	 0 0 0
O 0.231609994	0.5077452196247733	-1.0184799820000001	 0 0 0
O 0.496150004	0.27207	-0.5453413692980464	 0 0 0
O 0.502519975	0.7343799866969091	-0.4546585911687537	 0 0 0
O 0.003849983	0.22793	-1.0453413692980464	 0 0 0
O 0.997480025	0.765620034696909	-0.954658618669517	 0 0 0
O 0.503849996	0.27207	-0.954658618669517	 0 0 0
O 0.497479993	0.7343799866969091	-1.0453413692980464	 0 0 0
O 0.996150004	0.22793	-0.4546585911687537	 0 0 0
O 0.002519995	0.765620034696909	-0.5453413692980464	 0 0 0
O 0.70465858657879	0.234380007	-0.25252000641003625	 0 0 0
O 0.2953413578880102	0.727930010696909	-0.753849996	 0 0 0
O 0.7953414042412826	0.265619993	-0.752519975	 0 0 0
O 0.20465861470195348	0.7720700106969091	-0.25384999441003625	 0 0 0
O 0.2953413578880102	0.234380007	-1.2474800364100362	 0 0 0
O 0.70465858657879	0.727930010696909	-0.746150004	 0 0 0
O 0.20465861470195348	0.265619993	-0.747479993	 0 0 0
O 0.7953414042412826	0.7720700106969091	-1.2461500154100362	 0 0 0

K_POINTS automatic
6 6 6 0 0 0
