
&CONTROL
    calculation   = 'vc-relax'
    restart_mode  = 'from_scratch'
    prefix        = 'Landau_22'
    pseudo_dir    = '/cluster/scratch/mnoe/QE/pps'
    outdir        = './'
    forc_conv_thr = 1.0d-7
    etot_conv_thr = 1.0d-7

/
&SYSTEM
    ibrav       = 0
    nat         = 32
    ntyp        = 2
    ecutwfc     = 120
    occupations = 'smearing'
    degauss     = 7.35d-4
    tot_charge  = -0.0
/
&ELECTRONS
    conv_thr    = 1.0d-8
    diagonalization = 'david'
/


&IONS
ion_dynamics = 'bfgs'
/

&CELL
cell_dynamics = 'bfgs'
cell_dofree = 'all'
/
CELL_PARAMETERS angstrom
        7.3236460686         0.0000000000         0.0000000000
        0.0000000000         7.7495899200         0.0000000000
        0.0000000000         0.0000000000         7.3236460686

ATOMIC_SPECIES
W 183.84 W_ONCV_LDA-4.0.upf
O 15.9994 O_ONCV_LDA-3.0.upf

ATOMIC_POSITIONS crystal
W 0.259540027	0.2696618140528461	-0.989960035	 0 0 0
W 0.7399599700522084	0.7303381859471538	-0.990460006	 0 0 0
W 0.240459989	0.23033820500639063	-0.489960002	 0 0 0
W 0.7600399330522084	0.7696619398891925	-0.490459989	 0 0 0
W 0.7404599410522084	0.2696618140528461	-0.510039981	 0 0 0
W 0.260039981	0.7303381859471538	-0.509540027	 0 0 0
W 0.7595399620522084	0.23033820500639063	-1.0100399979999999	 0 0 0
W 0.239960002	0.7696619398891925	-1.009540027	 0 0 0
O 0.270330013	0.005001384261794484	-0.979770023	 0 0 0
O 0.7297699580522085	0.9949985434942289	-0.979670003	 0 0 0
O 0.229670003	0.49499866933057535	-0.479770007	 0 0 0
O 0.7702299440522085	0.5050014565057711	-0.479670003	 0 0 0
O 0.7296699380522084	0.005001384261794484	-0.5202299930000001	 0 0 0
O 0.270229993	0.9949985434942289	-0.5203300129999999	 0 0 0
O 0.7703299640522084	0.49499866933057535	-1.020230009	 0 0 0
O 0.229770007	0.5050014565057711	-1.0203300290000001	 0 0 0
O 0.495759952	0.274280015	-0.5207140486569964	 0 0 0
O 0.502779955	0.7328100908885548	-0.4792858013881833	 0 0 0
O 0.004239976	0.22572	-1.0207140486569966	 0 0 0
O 0.997220012	0.7671900308885548	-0.979286033001639	 0 0 0
O 0.504239983	0.274280015	-0.979286033001639	 0 0 0
O 0.497220012	0.7328100908885548	-1.0207140486569966	 0 0 0
O 0.995760017	0.22572	-0.4792858013881833	 0 0 0
O 0.002779991	0.7671900308885548	-0.5207140486569964	 0 0 0
O 0.7292858503359749	0.232809984	-0.2527800559477916	 0 0 0
O 0.27071398370920463	0.7257200758885548	-0.754239983	 0 0 0
O 0.7707142475596084	0.26719	-0.752779955	 0 0 0
O 0.22928593534300346	0.7742800458885547	-0.2542400409477916	 0 0 0
O 0.27071398370920463	0.232809984	-1.2472200769477917	 0 0 0
O 0.7292858503359749	0.7257200758885548	-0.745759952	 0 0 0
O 0.22928593534300346	0.26719	-0.747220012	 0 0 0
O 0.7707142475596084	0.7742800458885547	-1.2457600819477916	 0 0 0

K_POINTS automatic
6 6 6 0 0 0
