
&CONTROL
    calculation   = 'vc-relax'
    restart_mode  = 'from_scratch'
    prefix        = 'Landau_24'
    pseudo_dir    = '/cluster/scratch/mnoe/QE/pps'
    outdir        = './'
    forc_conv_thr = 1.0d-7
    etot_conv_thr = 1.0d-7

/
&SYSTEM
    ibrav       = 0
    nat         = 32
    ntyp        = 2
    ecutwfc     = 120
    occupations = 'smearing'
    degauss     = 7.35d-4
    tot_charge  = -0.0
/
&ELECTRONS
    conv_thr    = 1.0d-8
    diagonalization = 'david'
/


&IONS
ion_dynamics = 'bfgs'
/

&CELL
cell_dynamics = 'bfgs'
cell_dofree = 'all'
/
CELL_PARAMETERS angstrom
        7.3236460686         0.0000000000         0.0000000000
        0.0000000000         7.7495899200         0.0000000000
        0.0000000000         0.0000000000         7.3236460686

ATOMIC_SPECIES
W 183.84 W_ONCV_LDA-4.0.upf
O 15.9994 O_ONCV_LDA-3.0.upf

ATOMIC_POSITIONS crystal
W 0.27157998799999994	0.29001039436000003	0.250620016	 0 0 0
W -0.2506200609999999	0.70998960564	-0.728420029	 0 0 0
W 0.22842001199999995	0.20998960984	0.750620012	 0 0 0
W 0.7506200160000001	0.79001036336	0.7715799879999999	 0 0 0
W 0.7284199840000001	0.29001039436000003	0.7493799879999999	 0 0 0
W 0.25062001199999995	0.70998960564	0.728420012	 0 0 0
W -0.2284200289999999	0.20998960984	-0.750620061	 0 0 0
W 0.24937998799999994	0.79001036336	0.22841998400000002	 0 0 0
O 0.27372998299999995	0.02374240072	0.26721000899999997	 0 0 0
O -0.267209986	0.97625764172	-0.7262699680000002	 0 0 0
O 0.22626998400000004	0.47625758840000004	0.7672099700000001	 0 0 0
O 0.7672100089999999	0.5237424029200001	0.773729983	 0 0 0
O 0.7262699910000001	0.02374240072	0.732789997	 0 0 0
O 0.26720997	0.97625764172	0.7262699840000001	 0 0 0
O -0.2262699680000001	0.47625758840000004	-0.7672099860000001	 0 0 0
O 0.23278999699999997	0.5237424029200001	0.22626999100000006	 0 0 0
O 0.49237002500000004	0.275600007	0.7416672328	 0 0 0
O 0.49843005500000004	0.73358001	0.758332781	 0 0 0
O -0.992369976	0.22440002400000003	1.2416672312400001	 0 0 0
O 0.0015699799999999708	0.7664198999999999	0.25833281488	 0 0 0
O 0.507629975	0.275600007	0.25833281488	 0 0 0
O 0.501569945	0.73358001	1.2416672312400001	 0 0 0
O -0.0076300550000000245	0.22440002400000003	0.758332781	 0 0 0
O -1.001570011	0.7664198999999999	0.7416672328	 0 0 0
O 0.7416672895599998	0.23358004	2.001569978	 0 0 0
O 0.25833280176	0.7243999329999999	0.492369992	 0 0 0
O 0.7583327572399999	0.266419991	0.501570027	 0 0 0
O 0.24166724951999996	0.7755999769999999	1.992370058	 0 0 0
O 0.25833280176	0.23358004	0.998430102	 0 0 0
O 0.74166728956	0.7243999329999999	0.507630057	 0 0 0
O 0.24166724952000002	0.266419991	0.498430022	 0 0 0
O 0.7583327572399999	0.7755999769999999	1.0076300219999998	 0 0 0

K_POINTS automatic
6 6 6 0 0 0
