
&CONTROL
    calculation   = 'vc-relax'
    restart_mode  = 'from_scratch'
    prefix        = 'Landau_24'
    pseudo_dir    = '/cluster/scratch/mnoe/QE/pps'
    outdir        = './'
    forc_conv_thr = 1.0d-7
    etot_conv_thr = 1.0d-7

/
&SYSTEM
    ibrav       = 0
    nat         = 32
    ntyp        = 2
    ecutwfc     = 120
    occupations = 'smearing'
    degauss     = 7.35d-4
    tot_charge  = -0.0
/
&ELECTRONS
    conv_thr    = 1.0d-8
    diagonalization = 'david'
/


&IONS
ion_dynamics = 'bfgs'
/

&CELL
cell_dynamics = 'bfgs'
cell_dofree = 'all'
/
CELL_PARAMETERS angstrom
        7.3236460686         0.0000000000         0.0000000000
        0.0000000000         7.7495899200         0.0000000000
        0.0000000000         0.0000000000         7.3236460686

ATOMIC_SPECIES
W 183.84 W_ONCV_LDA-4.0.upf
O 15.9994 O_ONCV_LDA-3.0.upf

ATOMIC_POSITIONS crystal
W 0.26041001	0.26855106769401393	-0.989050021	 0 0 0
W 0.7390499501478636	0.7314489323059861	-0.989589973	 0 0 0
W 0.239590006	0.23144895173424435	-0.489050004	 0 0 0
W 0.7609498761478636	0.7685512049700283	-0.489590006	 0 0 0
W 0.7395899021478636	0.26855106769401393	-0.510949996	 0 0 0
W 0.260949996	0.7314489323059861	-0.51041001	 0 0 0
W 0.7604099231478636	0.23144895173424435	-1.0109499469999998	 0 0 0
W 0.239050004	0.7685512049700283	-1.010409994	 0 0 0
O 0.272180028	0.004698784012866709	-0.977930004	 0 0 0
O 0.7279299331478636	0.9953011359937043	-0.977819955	 0 0 0
O 0.227819988	0.4953012732697185	-0.477929987	 0 0 0
O 0.7720698931478637	0.5046988640062957	-0.47781998800000003	 0 0 0
O 0.7278198841478636	0.004698784012866709	-0.5220699959999999	 0 0 0
O 0.272069996	0.9953011359937043	-0.522180028	 0 0 0
O 0.7721799411478636	0.4953012732697185	-1.022069964	 0 0 0
O 0.227929987	0.5046988640062957	-1.022180012	 0 0 0
O 0.495379927	0.27649	-0.517998055262178	 0 0 0
O 0.503030006	0.7312500574238779	-0.48200178260529086	 0 0 0
O 0.004620016	0.22351	-1.017998055262178	 0 0 0
O 0.996970027	0.768750075423878	-0.9820020367290606	 0 0 0
O 0.504620008	0.27649	-0.9820020367290606	 0 0 0
O 0.496969994	0.7312500574238779	-1.017998055262178	 0 0 0
O 0.995379992	0.22351	-0.48200178260529086	 0 0 0
O 0.003030002	0.768750075423878	-0.517998055262178	 0 0 0
O 0.7320018374574272	0.231249991	-0.2530300728521363	 0 0 0
O 0.2679979844100414	0.723510097423878	-0.754620008	 0 0 0
O 0.7679982722468455	0.268750009	-0.753030006	 0 0 0
O 0.23200192873782197	0.776490035423878	-0.25462008685213633	 0 0 0
O 0.2679979844100414	0.231249991	-1.2469700978521365	 0 0 0
O 0.7320018374574272	0.723510097423878	-0.745379927	 0 0 0
O 0.23200192873782197	0.268750009	-0.7469699940000001	 0 0 0
O 0.7679982722468455	0.776490035423878	-1.2453800628521365	 0 0 0

K_POINTS automatic
6 6 6 0 0 0
