
&CONTROL
    calculation   = 'vc-relax'
    restart_mode  = 'from_scratch'
    prefix        = 'Landau_40'
    pseudo_dir    = '/cluster/scratch/mnoe/QE/pps'
    outdir        = './'
    forc_conv_thr = 1.0d-7
    etot_conv_thr = 1.0d-7

/
&SYSTEM
    ibrav       = 0
    nat         = 32
    ntyp        = 2
    ecutwfc     = 120
    occupations = 'smearing'
    degauss     = 7.35d-4
    tot_charge  = -0.0
/
&ELECTRONS
    conv_thr    = 1.0d-8
    diagonalization = 'david'
/


&IONS
ion_dynamics = 'bfgs'
/

&CELL
cell_dynamics = 'bfgs'
cell_dofree = 'all'
/
CELL_PARAMETERS angstrom
        7.3236460686         0.0000000000         0.0000000000
        0.0000000000         7.7495899200         0.0000000000
        0.0000000000         0.0000000000         7.3236460686

ATOMIC_SPECIES
W 183.84 W_ONCV_LDA-4.0.upf
O 15.9994 O_ONCV_LDA-3.0.upf

ATOMIC_POSITIONS crystal
0.2315	0.2854801351624	0.017470001	 0 0 0
0.768499983	0.7145198648376	0.982530022	 0 0 0
0.2685	0.2145198750406	0.517470011	 0 0 0
0.731500017	0.7854801041624	0.482529989	 0 0 0
0.768499983	0.2854801351624	0.482529989	 0 0 0
0.2315	0.7145198648376	0.517470011	 0 0 0
0.731500017	0.2145198750406	0.982530022	 0 0 0
0.2685	0.7854801041624	0.017470001	 0 0 0
0.215869987	0.0151701163198	0.00543	 0 0 0
0.784129964	0.9848299153148	0.994569993	 0 0 0
0.284129997	0.484829874401	0.505429974	 0 0 0
0.715870036	0.5151701045128	0.494569993	 0 0 0
0.784129964	0.0151701163198	0.494569993	 0 0 0
0.215869987	0.9848299153148	0.505429974	 0 0 0
0.715870036	0.484829874401	0.994569993	 0 0 0
0.284129997	0.5151701045128	0.00543	 0 0 0
0.505060008	0.214990001	0.468251514792	 0 0 0
0.494939992	0.785009999	0.5317484729949999	 0 0 0
0.994939959	0.285009969	0.9682515324416	 0 0 0
0.005059958	0.714990031	0.0317485152792	 0 0 0
0.494939992	0.214990001	0.0317485152792	 0 0 0
0.505060008	0.785009999	0.9682515324416	 0 0 0
0.005059958	0.285009969	0.5317484729949999	 0 0 0
0.994939959	0.714990031	0.468251514792	 0 0 0
0.7182515583454	0.242360002	0.742330014	 0 0 0
0.2817485005584	0.757640029	0.257669986	 0 0 0
0.7817484624416	0.257639998	0.242330079	 0 0 0
0.2182515311118	0.742360002	0.757669986	 0 0 0
0.2817485005584	0.242360002	0.757669986	 0 0 0
0.7182515583454	0.757640029	0.242330079	 0 0 0
0.2182515311118	0.257639998	0.257669986	 0 0 0
0.7817484624416	0.742360002	0.742330014	 0 0 0

K_POINTS automatic
6 6 6 0 0 0
