&CONTROL
    calculation   = 'scf'
    restart_mode  = 'from_scratch'
    prefix        = 'Landau_25'
    pseudo_dir    = '/cluster/scratch/mnoe/QE/pps'
    outdir        = './'
/
&SYSTEM
    ibrav       = 0
    nat         = 32
    ntyp        = 2
    ecutwfc     = 120
    occupations = 'smearing'
    degauss     = 7.35d-4
    tot_charge  = -0.84
/
&ELECTRONS
    conv_thr    = 1.0d-8
    diagonalization = 'david'
/

CELL_PARAMETERS angstrom
   7.318758710   0.000000000   0.000000000
   0.000000000   7.691238719   0.000000000
   0.000000000   0.000000000   7.342367134

ATOMIC_SPECIES
W 183.84 W_ONCV_LDA-4.0.upf
O 15.9994 O_ONCV_LDA-3.0.upf

ATOMIC_POSITIONS crystal
W         0.238440001         0.281860003         0.010920000
W         0.761559966         0.718139997         0.989080018
W         0.261559999         0.218140012         0.510919982
W         0.738440034         0.781859972         0.489080018
W         0.761559966         0.281860003         0.489080018
W         0.238440001         0.718139997         0.510919982
W         0.738440034         0.218140012         0.989080018
W         0.261559999         0.781859972         0.010920000
O         0.228669993         0.008320000         0.003400000
O         0.771330007         0.991680023         0.996599987
O         0.271330007         0.491679992         0.503400013
O         0.728669993         0.508319977         0.496599987
O         0.771330007         0.008320000         0.496599987
O         0.228669993         0.991680023         0.503400013
O         0.728669993         0.491679992         0.996599987
O         0.271330007         0.508319977         0.003400000
O         0.503160011         0.228119995         0.449540004
O         0.496839989         0.771880036         0.550459963
O         0.996839989         0.271880005         0.949540037
O         0.003160000         0.728119995         0.050460012
O         0.496839989         0.228119995         0.050460012
O         0.503160011         0.771880036         0.949540037
O         0.003160000         0.271880005         0.550459963
O         0.996839989         0.728119995         0.449540004
O         0.699540037         0.245220011         0.745209978
O         0.300459996         0.754780004         0.254790006
O         0.800459963         0.254779989         0.245209929
O         0.199540020         0.745220027         0.754790022
O         0.300459996         0.245220011         0.754790022
O         0.699540037         0.754780004         0.245209929
O         0.199540020         0.254779989         0.254790006
O         0.800459963         0.745220027         0.745209978

K_POINTS automatic
6 6 6 0 0 0
