&CONTROL
    calculation   = 'scf'
    restart_mode  = 'from_scratch'
    prefix        = 'Landau_19'
    pseudo_dir    = '/cluster/scratch/mnoe/QE/pps'
    outdir        = './'
/
&SYSTEM
    ibrav       = 0
    nat         = 32
    ntyp        = 2
    ecutwfc     = 120
    occupations = 'smearing'
    degauss     = 7.35d-4
    tot_charge  = -0.2
/
&ELECTRONS
    conv_thr    = 1.0d-8
    diagonalization = 'david'
/

CELL_PARAMETERS angstrom
   7.503889244   0.000000000   0.000000000
   0.000000000   7.573762037   0.000000000
   0.000000000   0.000000000   7.510752347

ATOMIC_SPECIES
W 183.84 W_ONCV_LDA-4.0.upf
O 15.9994 O_ONCV_LDA-3.0.upf

ATOMIC_POSITIONS crystal
W 0.24122244789238864	0.26693709363233864	0.008288856437703936	
W 0.7587774647167114	0.7330629063676614	-0.008288845525071612	
W 0.2587775521076114	0.23306292632547618	0.5082888611823267	
W 0.741222376633206	0.7669372163246062	0.4917111388176733	
W 0.7587774647167114	0.26693709363233864	0.4917111388176733	
W 0.24122244789238864	0.7330629063676614	0.5082888611823267	
W 0.741222376633206	0.23306292632547618	-0.008288845525071612	
W 0.2587775521076114	0.7669372163246062	0.008288856437703936	
O 0.23380659634913764	0.004254556927894236	0.0025763301591529603	
O 0.7661933010771695	-0.004254638042010963	-0.0025763334803888733	
O 0.26619339605946596	0.49574548465025664	0.5025763178231338	
O 0.7338065402727479	0.504254638042011	0.4974236665196111	
O 0.7661933010771695	0.004254556927894236	0.4974236665196111	
O 0.23380659634913764	-0.004254638042010963	0.5025763178231338	
O 0.7338065402727479	0.49574548465025664	-0.0025763334803888733	
O 0.26619339605946596	0.504254638042011	0.0025763301591529603	
O 0.502400782912699	0.23338907618865284	0.4860294535955466	
O 0.49759921708730104	0.7666109902955076	0.5139706770123509	
O -0.0024007985699540596	0.26661090957747885	0.9860294865955466	
O 0.0024007591895851372	0.7333891569066816	0.01397042358563104	
O 0.49759921708730104	0.23338907618865284	0.01397042358563104	
O 0.502400782912699	0.7666109902955076	0.9860294865955466	
O 0.0024007591895851372	0.26661090957747885	0.5139706770123509	
O -0.0024007985699540596	0.7333891569066816	0.4860294535955466	
O 0.7360294023126904	0.2463751091596191	0.7463608016598425	
O 0.26397046707941185	0.7536249720328719	0.2536391190151162	
O 0.7639707563373922	0.25362489084038087	0.24636091182493175	
O 0.2360294695955466	0.7463751756437795	0.753639039690075	
O 0.26397046707941185	0.2463751091596191	0.753639039690075	
O 0.7360294023126904	0.7536249720328719	0.24636091182493175	
O 0.2360294695955466	0.25362489084038087	0.2536391190151162	
O 0.7639707563373922	0.7463751756437795	0.7463608016598425	

K_POINTS automatic
6 6 6 0 0 0
