
&CONTROL
    calculation   = 'vc-relax'
    restart_mode  = 'from_scratch'
    prefix        = 'Landau_1'
    pseudo_dir    = '/cluster/scratch/mnoe/QE/pps'
    outdir        = './'
    forc_conv_thr = 1.0d-7
    etot_conv_thr = 1.0d-7

/
&SYSTEM
    ibrav       = 0
    nat         = 32
    ntyp        = 2
    ecutwfc     = 120
    occupations = 'smearing'
    degauss     = 7.35d-4
    tot_charge  = -0.0
/
&ELECTRONS
    conv_thr    = 1.0d-8
    diagonalization = 'david'
/


&IONS
ion_dynamics = 'bfgs'
/

&CELL
cell_dynamics = 'bfgs'
cell_dofree = 'all'
/
CELL_PARAMETERS angstrom
        7.3236460686         0.0000000000         0.0000000000
        0.0000000000         7.7495899200         0.0000000000
        0.0000000000         0.0000000000         7.3236460686

ATOMIC_SPECIES
W 183.84 W_ONCV_LDA-4.0.upf
O 15.9994 O_ONCV_LDA-3.0.upf

ATOMIC_POSITIONS crystal
W 0.249540001	0.2820368354463931	0.00044	 0 0 0
W 0.750460016	0.7179631645536069	0.999559974	 0 0 0
W 0.250459999	0.21796317931928808	0.500439994	 0 0 0
W 0.749539984	0.7820368044463931	0.499560006	 0 0 0
W 0.750460016	0.2820368354463931	0.499560006	 0 0 0
W 0.249540001	0.7179631645536069	0.500439994	 0 0 0
W 0.749539984	0.21796317931928808	0.999559974	 0 0 0
W 0.250459999	0.7820368044463931	0.00044	 0 0 0
O 0.249149997	0.008654607349280901	0.00014	 0 0 0
O 0.750850036	0.991345416072493	0.999860009	 0 0 0
O 0.25085002	0.49134538458823407	0.500140023	 0 0 0
O 0.749149964	0.5086545848960249	0.499859977	 0 0 0
O 0.750850036	0.008654607349280901	0.499859977	 0 0 0
O 0.249149997	0.991345416072493	0.500140023	 0 0 0
O 0.749149964	0.49134538458823407	0.999860009	 0 0 0
O 0.25085002	0.5086545848960249	0.00014	 0 0 0
O 0.500129996	0.249119995	0.4504540043957385	 0 0 0
O 0.499870004	0.750880021	0.5495459636196433	 0 0 0
O 0.999869972	0.250880005	0.9504540366459182	 0 0 0
O 0.000129938	0.74912001	0.0495460122915968	 0 0 0
O 0.499870004	0.249119995	0.0495460122915968	 0 0 0
O 0.500129996	0.750880021	0.9504540366459182	 0 0 0
O 0.000129938	0.250880005	0.5495459636196433	 0 0 0
O 0.999869972	0.74912001	0.4504540043957385	 0 0 0
O 0.7004540379112401	0.249809988	0.749810003	 0 0 0
O 0.29954599635408186	0.750189997	0.250190013	 0 0 0
O 0.7995459631041417	0.250190012	0.249809987	 0 0 0
O 0.2004540204113598	0.749809973	0.750189997	 0 0 0
O 0.29954599635408186	0.249809988	0.750189997	 0 0 0
O 0.7004540379112401	0.750189997	0.249809987	 0 0 0
O 0.2004540204113598	0.250190012	0.250190013	 0 0 0
O 0.7995459631041417	0.749809973	0.749810003	 0 0 0

K_POINTS automatic
6 6 6 0 0 0
