
&CONTROL
    calculation   = 'vc-relax'
    restart_mode  = 'from_scratch'
    prefix        = 'Landau_21'
    pseudo_dir    = '/cluster/scratch/mnoe/QE/pps'
    outdir        = './'
    forc_conv_thr = 1.0d-7
    etot_conv_thr = 1.0d-7

/
&SYSTEM
    ibrav       = 0
    nat         = 32
    ntyp        = 2
    ecutwfc     = 120
    occupations = 'smearing'
    degauss     = 7.35d-4
    tot_charge  = -0.0
/
&ELECTRONS
    conv_thr    = 1.0d-8
    diagonalization = 'david'
/


&IONS
ion_dynamics = 'bfgs'
/

&CELL
cell_dynamics = 'bfgs'
cell_dofree = 'all'
/
CELL_PARAMETERS angstrom
        7.3236460686         0.0000000000         0.0000000000
        0.0000000000         7.7495899200         0.0000000000
        0.0000000000         0.0000000000         7.3236460686

ATOMIC_SPECIES
W 183.84 W_ONCV_LDA-4.0.upf
O 15.9994 O_ONCV_LDA-3.0.upf

ATOMIC_POSITIONS crystal
W 0.25	0.2735023765565829	0.0	 0 0 0
W 0.7499999555737392	0.7264976234434171	0.0	 0 0 0
W 0.25	0.22649764122005825	0.5	 0 0 0
W 0.7499999555737392	0.7735024316324631	0.5	 0 0 0
W 0.7499999555737392	0.2735023765565829	0.5	 0 0 0
W 0.25	0.7264976234434171	0.5	 0 0 0
W 0.7499999555737392	0.22649764122005825	0.0	 0 0 0
W 0.25	0.7735024316324631	0.0	 0 0 0
O 0.25	0.006043134699372446	0.0	 0 0 0
O 0.7499999555737392	0.9939568299911603	0.0	 0 0 0
O 0.25	0.49395688506704055	0.5	 0 0 0
O 0.7499999555737392	0.5060431700088397	0.5	 0 0 0
O 0.7499999555737392	0.006043134699372446	0.5	 0 0 0
O 0.25	0.9939568299911603	0.5	 0 0 0
O 0.7499999555737392	0.49395688506704055	0.0	 0 0 0
O 0.25	0.5060431700088397	0.0	 0 0 0
O 0.5	0.25	0.4699760450783134	 0 0 0
O 0.5	0.7500000266496195	0.5300240135508493	 0 0 0
O 0.0	0.25	0.9699760780783134	 0 0 0
O 0.0	0.7500000266496195	0.030023893175730194	 0 0 0
O 0.5	0.25	0.030023893175730194	 0 0 0
O 0.5	0.7500000266496195	0.9699760780783134	 0 0 0
O 0.0	0.25	0.5300240135508493	 0 0 0
O 0.0	0.7500000266496195	0.4699760450783134	 0 0 0
O 0.7199760308754115	0.25	0.7499999555737392	 0 0 0
O 0.2800239104954257	0.7500000266496195	0.25	 0 0 0
O 0.78002405797711	0.25	0.25	 0 0 0
O 0.21997606107831344	0.7500000266496195	0.7499999555737392	 0 0 0
O 0.2800239104954257	0.25	0.7499999555737392	 0 0 0
O 0.7199760308754115	0.7500000266496195	0.25	 0 0 0
O 0.21997606107831344	0.25	0.25	 0 0 0
O 0.78002405797711	0.7500000266496195	0.7499999555737392	 0 0 0

K_POINTS automatic
6 6 6 0 0 0
