
&CONTROL
    calculation   = 'vc-relax'
    restart_mode  = 'from_scratch'
    prefix        = 'Landau_18'
    pseudo_dir    = '/cluster/scratch/mnoe/QE/pps'
    outdir        = './'
    forc_conv_thr = 1.0d-7
    etot_conv_thr = 1.0d-7

/
&SYSTEM
    ibrav       = 0
    nat         = 32
    ntyp        = 2
    ecutwfc     = 120
    occupations = 'smearing'
    degauss     = 7.35d-4
    tot_charge  = -0.0
/
&ELECTRONS
    conv_thr    = 1.0d-8
    diagonalization = 'david'
/


&IONS
ion_dynamics = 'bfgs'
/

&CELL
cell_dynamics = 'bfgs'
cell_dofree = 'all'
/
CELL_PARAMETERS angstrom
        7.3236460686         0.0000000000         0.0000000000
        0.0000000000         7.7495899200         0.0000000000
        0.0000000000         0.0000000000         7.3236460686

ATOMIC_SPECIES
W 183.84 W_ONCV_LDA-4.0.upf
O 15.9994 O_ONCV_LDA-3.0.upf

ATOMIC_POSITIONS crystal
        0.241680002         0.281860003         0.007860000 0 0 0
        0.758319998         0.718139997         0.992140017 0 0 0
        0.258319998         0.218140012         0.507860015 0 0 0
        0.741680002         0.781859972         0.492139985 0 0 0
        0.758319998         0.281860003         0.492139985 0 0 0
        0.241680002         0.718139997         0.507860015 0 0 0
        0.741680002         0.218140012         0.992140017 0 0 0
        0.258319998         0.781859972         0.007860000 0 0 0
        0.234640005         0.008320000         0.002450000 0 0 0
        0.765360027         0.991680023         0.997550035 0 0 0
        0.265359995         0.491679992         0.502449998 0 0 0
        0.734639973         0.508319977         0.497550002 0 0 0
        0.765360027         0.008320000         0.497550002 0 0 0
        0.234640005         0.991680023         0.502449998 0 0 0
        0.734639973         0.491679992         0.997550035 0 0 0
        0.265359995         0.508319977         0.002450000 0 0 0
        0.502279991         0.234249988         0.449540004 0 0 0
        0.497720009         0.765749996         0.550459963 0 0 0
        0.997719977         0.265749996         0.949540037 0 0 0
        0.002279997         0.734250034         0.050460012 0 0 0
        0.497720009         0.234249988         0.050460012 0 0 0
        0.502279991         0.765749996         0.949540037 0 0 0
        0.002279997         0.265749996         0.550459963 0 0 0
        0.997719977         0.734250034         0.449540004 0 0 0
        0.699540037         0.246560002         0.746550046 0 0 0
        0.300459996         0.753440014         0.253449970 0 0 0
        0.800459963         0.253439998         0.246550079 0 0 0
        0.199540020         0.746559956         0.753449954 0 0 0
        0.300459996         0.246560002         0.753449954 0 0 0
        0.699540037         0.753440014         0.246550079 0 0 0
        0.199540020         0.253439998         0.253449970 0 0 0
        0.800459963         0.746559956         0.746550046 0 0 0

K_POINTS automatic
6 6 6 0 0 0
