
&CONTROL
    calculation   = 'vc-relax'
    restart_mode  = 'from_scratch'
    prefix        = 'Landau_17'
    pseudo_dir    = '/cluster/scratch/mnoe/QE/pps'
    outdir        = './'
    forc_conv_thr = 1.0d-7
    etot_conv_thr = 1.0d-7

/
&SYSTEM
    ibrav       = 0
    nat         = 32
    ntyp        = 2
    ecutwfc     = 120
    occupations = 'smearing'
    degauss     = 7.35d-4
    tot_charge  = -0.0
/
&ELECTRONS
    conv_thr    = 1.0d-8
    diagonalization = 'david'
/


&IONS
ion_dynamics = 'bfgs'
/

&CELL
cell_dynamics = 'bfgs'
cell_dofree = 'all'
/
CELL_PARAMETERS angstrom
        7.3236460686         0.0000000000         0.0000000000
        0.0000000000         7.7495899200         0.0000000000
        0.0000000000         0.0000000000         7.3236460686

ATOMIC_SPECIES
W 183.84 W_ONCV_LDA-4.0.upf
O 15.9994 O_ONCV_LDA-3.0.upf

ATOMIC_POSITIONS crystal
W 0.257369993	0.2800555018288047	-0.99224995	 0 0 0
W 0.7422499403014692	0.7199444981711953	-0.992629975	 0 0 0
W 0.242630007	0.2199445137773535	-0.492249999	 0 0 0
W 0.7577500073014691	0.7800555206197082	-0.49263000700000004	 0 0 0
W 0.7426299653014692	0.2800555018288047	-0.507750001	 0 0 0
W 0.257750001	0.7199444981711953	-0.507369993	 0 0 0
W 0.7573699833014691	0.2199445137773535	-1.007750017	 0 0 0
W 0.242249999	0.7800555206197082	-1.007369993	 0 0 0
O 0.265709989	0.007832933051735498	-0.984369975	 0 0 0
O 0.7343699653014691	0.9921670672189428	-0.984290011	 0 0 0
O 0.234290011	0.49216708600984627	-0.484369991	 0 0 0
O 0.7656299833014691	0.5078329327810572	-0.484290011	 0 0 0
O 0.7342900013014692	0.007832933051735498	-0.515630009	 0 0 0
O 0.265630009	0.9921670672189428	-0.515709989	 0 0 0
O 0.7657100123014692	0.49216708600984627	-1.0156299930000001	 0 0 0
O 0.234369991	0.5078329327810572	-1.015710022	 0 0 0
O 0.496730102	0.268760008	-0.5461286603033395	 0 0 0
O 0.502139983	0.7367199830923726	-0.45387130369344064	 0 0 0
O 0.003269971	0.231240007	-1.0461286603033395	 0 0 0
O 0.997859985	0.7632800350923726	-0.9538713246690894	 0 0 0
O 0.503269963	0.268760008	-0.9538713246690894	 0 0 0
O 0.497860017	0.7367199830923726	-1.0461286603033395	 0 0 0
O 0.996730004	0.231240007	-0.45387130369344064	 0 0 0
O 0.002139986	0.7632800350923726	-0.5461286603033395	 0 0 0
O 0.7038712973919714	0.236719989	-0.2521399956985308	 0 0 0
O 0.29612865060480864	0.7312400320923726	-0.753269963	 0 0 0
O 0.7961286900050902	0.263279995	-0.752139983	 0 0 0
O 0.20387132369666047	0.7687599860923726	-0.2532699806985308	 0 0 0
O 0.29612865060480864	0.236719989	-1.2478599946985307	 0 0 0
O 0.7038712973919714	0.7312400320923726	-0.746730102	 0 0 0
O 0.20387132369666047	0.263279995	-0.747860017	 0 0 0
O 0.7961286900050902	0.7687599860923726	-1.2467300136985309	 0 0 0

K_POINTS automatic
6 6 6 0 0 0
