
&CONTROL
    calculation   = 'vc-relax'
    restart_mode  = 'from_scratch'
    prefix        = 'Landau_27'
    pseudo_dir    = '/cluster/scratch/mnoe/QE/pps'
    outdir        = './'
    forc_conv_thr = 1.0d-7
    etot_conv_thr = 1.0d-7

/
&SYSTEM
    ibrav       = 0
    nat         = 16
    ntyp        = 2
    ecutwfc     = 120
    occupations = 'smearing'
    degauss     = 7.35d-4
    tot_charge  = -0.0
/
&ELECTRONS
    conv_thr    = 1.0d-8
    diagonalization = 'david'
/


&IONS
ion_dynamics = 'bfgs'
/

&CELL
cell_dynamics = 'bfgs'
cell_dofree = 'all'
/
CELL_PARAMETERS angstrom
        5.177959919             0.0             0.0
        0.0             5.177959919             0.0
        0.0             0.0            7.7496299744

ATOMIC_SPECIES
W 183.84 W_ONCV_LDA-4.0.upf
O 15.9994 O_ONCV_LDA-3.0.upf

ATOMIC_POSITIONS crystal
W       0.2499999999999312	0.2499999999998775	0.2089535910478091	 0 0 0
W       0.7500000229999396	0.7500000229999773	0.7910464239495807	 0 0 0
W       0.7500000230000201	0.7500000230000522	0.2910464239521894	 0 0 0
W       0.24999999999991865	0.2500000000000387	0.7089535760504195	 0 0 0
O      0.24999999999970787	0.24999999999990746	0.4743234189097607	 0 0 0
O      0.7500000229999919	0.7500000230003483	0.5256765810942521	 0 0 0
O      0.7500000229998616	0.7500000230000204	0.025676594090244795	 0 0 0
O      0.24999999999975003	0.2500000000000581	0.9743234189057388	 0 0 0
O       0.4968061335112839	0.5031938204886381	0.25000000000004524	 0 0 0
O       0.5031938665175361	0.49680617948249656	0.7499999999999984	 0 0 0
O       0.0031938494890042593	0.9968061795108467	0.2500000000000044	 0 0 0
O       0.9968060874828581	0.0031938835172499527	0.7500000000002205	 0 0 0
O       0.9968061795110208	0.49680613351098063	0.2500000000001696	 0 0 0
O       0.003193883517514623	0.5031938665175103	0.7499999999999732	 0 0 0
O       0.5031938204888503	0.003193849488904818	0.24999999999987202	 0 0 0
O       0.4968061794828768	0.996806087482806	0.7499999999997248	 0 0 0

K_POINTS automatic
9 9 6 0 0 0
