
&CONTROL
    calculation   = 'vc-relax'
    restart_mode  = 'from_scratch'
    prefix        = 'Landau_27'
    pseudo_dir    = '/cluster/scratch/mnoe/QE/pps'
    outdir        = './'
    forc_conv_thr = 1.0d-7
    etot_conv_thr = 1.0d-7

/
&SYSTEM
    ibrav       = 0
    nat         = 32
    ntyp        = 2
    ecutwfc     = 120
    occupations = 'smearing'
    degauss     = 7.35d-4
    tot_charge  = -0.0
/
&ELECTRONS
    conv_thr    = 1.0d-8
    diagonalization = 'david'
/


&IONS
ion_dynamics = 'bfgs'
/

&CELL
cell_dynamics = 'bfgs'
cell_dofree = 'all'
/
CELL_PARAMETERS angstrom
        7.3236460686         0.0000000000         0.0000000000
        0.0000000000         7.7495899200         0.0000000000
        0.0000000000         0.0000000000         7.3236460686

ATOMIC_SPECIES
W 183.84 W_ONCV_LDA-4.0.upf
O 15.9994 O_ONCV_LDA-3.0.upf

ATOMIC_POSITIONS crystal
W 0.25	0.27111448328703514	0.0	 0 0 0
W 0.7499999428805219	0.7288855167129649	0.0	 0 0 0
W 0.25	0.22888553528293204	0.5	 0 0 0
W 0.7499999428805219	0.7711145629560241	0.5	 0 0 0
W 0.7499999428805219	0.27111448328703514	0.5	 0 0 0
W 0.25	0.7288855167129649	0.5	 0 0 0
W 0.7499999428805219	0.22888553528293204	0.0	 0 0 0
W 0.25	0.7711145629560241	0.0	 0 0 0
O 0.25	0.005392601756336002	0.0	 0 0 0
O 0.7499999428805219	0.994607346274349	0.0	 0 0 0
O 0.25	0.49460742594333784	0.5	 0 0 0
O 0.7499999428805219	0.505392653725651	0.5	 0 0 0
O 0.7499999428805219	0.005392601756336002	0.5	 0 0 0
O 0.25	0.994607346274349	0.5	 0 0 0
O 0.7499999428805219	0.49460742594333784	0.0	 0 0 0
O 0.25	0.505392653725651	0.0	 0 0 0
O 0.5	0.25	0.47581491395783154	 0 0 0
O 0.5	0.7500000385495108	0.524185170851092	 0 0 0
O 0.0	0.25	0.9758149469578316	 0 0 0
O 0.0	0.7500000385495108	0.024185002083081678	 0 0 0
O 0.5	0.25	0.024185002083081678	 0 0 0
O 0.5	0.7500000385495108	0.9758149469578316	 0 0 0
O 0.0	0.25	0.524185170851092	 0 0 0
O 0.0	0.7500000385495108	0.47581491395783154	 0 0 0
O 0.7258148862683862	0.25	0.7499999428805219	 0 0 0
O 0.27418502892269014	0.7500000385495108	0.25	 0 0 0
O 0.77418522797057	0.25	0.25	 0 0 0
O 0.22581492995783156	0.7500000385495108	0.7499999428805219	 0 0 0
O 0.27418502892269014	0.25	0.7499999428805219	 0 0 0
O 0.7258148862683862	0.7500000385495108	0.25	 0 0 0
O 0.22581492995783156	0.25	0.25	 0 0 0
O 0.77418522797057	0.7500000385495108	0.7499999428805219	 0 0 0

K_POINTS automatic
6 6 6 0 0 0
