&CONTROL
    calculation   = 'scf'
    restart_mode  = 'from_scratch'
    prefix        = 'Landau_36'
    pseudo_dir    = '/cluster/scratch/mnoe/QE/pps'
    outdir        = './'
/
&SYSTEM
    ibrav       = 0
    nat         = 16
    ntyp        = 2
    ecutwfc     = 120
    occupations = 'smearing'
    degauss     = 7.35d-4
    tot_charge  = -0.0
/
&ELECTRONS
    conv_thr    = 1.0d-8
    diagonalization = 'david'
/

CELL_PARAMETERS angstrom
   5.239572049   0.000000000   0.000000000
   0.000000000   5.239572049   0.000000000
   0.000000000   0.000000000   7.616890100

ATOMIC_SPECIES
W 183.84 W_ONCV_LDA-4.0.upf
O 15.9994 O_ONCV_LDA-3.0.upf

ATOMIC_POSITIONS crystal
W       0.24999999999990827	0.24999999999983663	0.2058981243970788	
W       0.7500000229999195	0.7500000229999697	0.7941018905994408	
W       0.7500000230000268	0.7500000230000695	0.29410189060291914	
W       0.2499999999998915	0.2500000000000516	0.7058981094005594	
O      0.24999999999961048	0.24999999999987663	0.4685412165463476	
O      0.7500000229999892	0.7500000230004644	0.5314587834590028	
O      0.7500000229998155	0.7500000230000272	0.031458796453659725	
O      0.24999999999966674	0.25000000000007744	0.9685412165409851	
O       0.5126048526817119	0.48739510131818425	0.2500000000000603	
O       0.4873951473567147	0.5126048986433287	0.749999999999998	
O       -0.012604869681327645	1.012604898681129	0.2500000000000059	
O       1.012604806643811	-0.012604835643666726	0.750000000000294	
O       1.012604898681361	0.5126048526813075	0.2500000000002261	
O       -0.012604835643313841	0.4873951473566804	0.7499999999999644	
O       0.4873951013184671	-0.012604869681460233	0.2499999999998294	
O       0.5126048986438357	1.0126048066437412	0.749999999999633	

K_POINTS automatic
6 6 6 0 0 0
