
&CONTROL
    calculation   = 'vc-relax'
    restart_mode  = 'from_scratch'
    prefix        = 'Landau_12'
    pseudo_dir    = '/cluster/scratch/mnoe/QE/pps'
    outdir        = './'
    forc_conv_thr = 1.0d-7
    etot_conv_thr = 1.0d-7

/
&SYSTEM
    ibrav       = 0
    nat         = 32
    ntyp        = 2
    ecutwfc     = 120
    occupations = 'smearing'
    degauss     = 7.35d-4
    tot_charge  = -0.0
/
&ELECTRONS
    conv_thr    = 1.0d-8
    diagonalization = 'david'
/


&IONS
ion_dynamics = 'bfgs'
/

&CELL
cell_dynamics = 'bfgs'
cell_dofree = 'all'
/
CELL_PARAMETERS angstrom
        7.3236460686         0.0000000000         0.0000000000
        0.0000000000         7.7495899200         0.0000000000
        0.0000000000         0.0000000000         7.3236460686

ATOMIC_SPECIES
W 183.84 W_ONCV_LDA-4.0.upf
O 15.9994 O_ONCV_LDA-3.0.upf

ATOMIC_POSITIONS crystal
W 0.2284414887930622	0.27932601444774285	-0.0006173164220034354	 0 0 0
W 0.7506173167371705	0.7206739855522571	-0.02155848123959752	 0 0 0
W 0.2715585112069378	0.2206740013941202	0.4993826793825689	 0 0 0
W 0.749382670108187	0.7793260095454988	0.4784414887930622	 0 0 0
W 0.7715584815547645	0.27932601444774285	0.500617320617431	 0 0 0
W 0.24938267938256894	0.7206739855522571	0.5215585112069377	 0 0 0
W 0.7284415052905929	0.2206740013941202	0.0006173302069799411	 0 0 0
W 0.2506173206174311	0.7793260095454988	0.021558495024574024	 0 0 0
O 0.22628982836517111	0.007629666369287641	-0.017201231757552463	 0 0 0
O 0.7672012140923153	-0.007629661048412613	-0.023710142266835373	 0 0 0
O 0.27371014226683543	0.49237033404934333	0.48279873288098596	 0 0 0
O 0.732798754772638	0.5076296610484126	0.47628983795471996	 0 0 0
O 0.7737101246015983	0.007629666369287641	0.5172012569301183	 0 0 0
O 0.2327987232914371	-0.007629661048412613	0.5237101518563843	 0 0 0
O 0.7262898442633551	0.49237033404934333	0.017201227562124843	 0 0 0
O 0.26720124734056944	0.5076296610484126	0.023710138071407753	 0 0 0
O 0.5076296812451142	0.2244378605194098	0.4557361045910585	 0 0 0
O 0.5015642819781974	0.7664041382896697	0.5442638901904235	 0 0 0
O -0.007629662066016394	0.275562121500186	0.9557361375910586	 0 0 0
O -0.0015642729879952748	0.7335959294871867	0.04426388783677481	 0 0 0
O 0.4923703187548858	0.2244378605194098	0.04426388783677481	 0 0 0
O 0.4984357180218026	0.7664041382896697	0.9557361375910586	 0 0 0
O 0.007629651277773888	0.275562121500186	0.5442638901904235	 0 0 0
O 0.0015642621997527689	0.7335959294871867	0.4557361045910585	 0 0 0
O 0.705736123279386	0.2664041047009149	0.7484357243304377	 0 0 0
O 0.29426388193913194	0.7755621736686918	0.2576296812451142	 0 0 0
O 0.794263903660233	0.23359587731868087	0.24843575697934503	 0 0 0
O 0.20573612059105853	0.7244378941081646	0.7576296875537493	 0 0 0
O 0.29426388193913194	0.2664041047009149	0.7515642984757281	 0 0 0
O 0.705736123279386	0.7755621736686918	0.24237035771242824	 0 0 0
O 0.20573612059105853	0.23359587731868087	0.2515642819781974	 0 0 0
O 0.794263903660233	0.7244378941081646	0.7423703352524166	 0 0 0

K_POINTS automatic
6 6 6 0 0 0
