
&CONTROL
    calculation   = 'vc-relax'
    restart_mode  = 'from_scratch'
    prefix        = 'Landau_36'
    pseudo_dir    = '/cluster/scratch/mnoe/QE/pps'
    outdir        = './'
    forc_conv_thr = 1.0d-7
    etot_conv_thr = 1.0d-7

/
&SYSTEM
    ibrav       = 0
    nat         = 32
    ntyp        = 2
    ecutwfc     = 120
    occupations = 'smearing'
    degauss     = 7.35d-4
    tot_charge  = -0.0
/
&ELECTRONS
    conv_thr    = 1.0d-8
    diagonalization = 'david'
/


&IONS
ion_dynamics = 'bfgs'
/

&CELL
cell_dynamics = 'bfgs'
cell_dofree = 'all'
/
CELL_PARAMETERS angstrom
        7.3236460686         0.0000000000         0.0000000000
        0.0000000000         7.7495899200         0.0000000000
        0.0000000000         0.0000000000         7.3236460686

ATOMIC_SPECIES
W 183.84 W_ONCV_LDA-4.0.upf
O 15.9994 O_ONCV_LDA-3.0.upf

ATOMIC_POSITIONS crystal
W 0.233349992	0.2882259710701499	0.01572	 0 0 0
W 0.766650024	0.7117740289298501	0.984279969	 0 0 0
W 0.266650024	0.21177403549437113	0.515719998	 0 0 0
W 0.733349976	0.7882259400701499	0.484280002	 0 0 0
W 0.766650024	0.2882259710701499	0.484280002	 0 0 0
W 0.233349992	0.7117740289298501	0.515719998	 0 0 0
W 0.733349976	0.21177403549437113	0.984279969	 0 0 0
W 0.266650024	0.7882259400701499	0.01572	 0 0 0
O 0.219290006	0.02036586457411245	0.00489	 0 0 0
O 0.780709962	0.9796341736097497	0.995109966	 0 0 0
O 0.280709994	0.4796341251764265	0.504890034	 0 0 0
O 0.719290038	0.5203658612568968	0.495109999	 0 0 0
O 0.780709962	0.02036586457411245	0.495109999	 0 0 0
O 0.219290006	0.9796341736097497	0.504890034	 0 0 0
O 0.719290038	0.4796341251764265	0.995109966	 0 0 0
O 0.280709994	0.5203658612568968	0.00489	 0 0 0
O 0.504549987	0.218490008	0.4824440182465868	 0 0 0
O 0.495450013	0.781509976	0.5175559853071555	 0 0 0
O 0.995450046	0.281510007	0.982444024253054	 0 0 0
O 0.00454998	0.718489993	0.01755602249748498	 0 0 0
O 0.495450013	0.218490008	0.01755602249748498	 0 0 0
O 0.504549987	0.781509976	0.982444024253054	 0 0 0
O 0.00454998	0.281510007	0.5175559853071555	 0 0 0
O 0.995450046	0.718489993	0.4824440182465868	 0 0 0
O 0.7324440698046406	0.243120003	0.743099962	 0 0 0
O 0.2675560087469461	0.756879981	0.256900006	 0 0 0
O 0.7675559667491018	0.256879981	0.243099929	 0 0 0
O 0.23244403480895204	0.743119988	0.756900038	 0 0 0
O 0.2675560087469461	0.243120003	0.756900038	 0 0 0
O 0.7324440698046406	0.756879981	0.243099929	 0 0 0
O 0.23244403480895204	0.256879981	0.256900006	 0 0 0
O 0.7675559667491018	0.743119988	0.743099962	 0 0 0

K_POINTS automatic
6 6 6 0 0 0
