&CONTROL
    calculation   = 'scf'
    restart_mode  = 'from_scratch'
    prefix        = 'Landau_26'
    pseudo_dir    = '/cluster/scratch/mnoe/QE/pps'
    outdir        = './'
/
&SYSTEM
    ibrav       = 0
    nat         = 16
    ntyp        = 2
    ecutwfc     = 120
    occupations = 'smearing'
    degauss     = 7.35d-4
    tot_charge  = -0.34
/
&ELECTRONS
    conv_thr    = 1.0d-8
    diagonalization = 'david'
/

CELL_PARAMETERS angstrom
   5.253275131   0.000000000   0.000000000
   0.000000000   5.253275131   0.000000000
   0.000000000   0.000000000   7.645151532

ATOMIC_SPECIES
W 183.84 W_ONCV_LDA-4.0.upf
O 15.9994 O_ONCV_LDA-3.0.upf

ATOMIC_POSITIONS crystal
W       0.24999999999993375	0.249999999999882	0.20929308734233468	
W       0.750000022999942	0.7500000229999781	0.7907069276551517	
W       0.7500000230000193	0.7500000230000502	0.2907069276576638	
W       0.24999999999992165	0.2500000000000373	0.7092930723448484	
O      0.2499999999997187	0.2499999999999109	0.4749658858390288	
O      0.7500000229999922	0.7500000230003354	0.5250341141648354	
O      0.7500000229998668	0.7500000230000197	0.02503412716097647	
O      0.2499999999997593	0.25000000000005596	0.9749658858351559	
O       0.4950507202701252	0.5049492337297997	0.2500000000000436	
O       0.5049492797576273	0.4950507662424041	0.7499999999999986	
O       0.004949262730152247	0.9950507662697042	0.2500000000000042	
O       0.9950506742427523	0.004949296757351798	0.7500000000002124	
O       0.9950507662698719	0.4950507202698332	0.25000000000016326	
O       0.004949296757606671	0.5049492797576025	0.7499999999999742	
O       0.504949233730004	0.00494926273005649	0.24999999999987677	
O       0.4950507662427702	0.995050674242702	0.7499999999997349	

K_POINTS automatic
9 9 6 0 0 0
