&CONTROL
    calculation   = 'scf'
    restart_mode  = 'from_scratch'
    prefix        = 'Landau_37'
    pseudo_dir    = '/cluster/scratch/mnoe/QE/pps'
    outdir        = './'
/
&SYSTEM
    ibrav       = 0
    nat         = 32
    ntyp        = 2
    ecutwfc     = 120
    occupations = 'smearing'
    degauss     = 7.35d-4
    tot_charge  = -0.68
/
&ELECTRONS
    conv_thr    = 1.0d-8
    diagonalization = 'david'
/

CELL_PARAMETERS angstrom
   7.312283553   0.000000000   0.000000000
   0.000000000   7.622611850   0.000000000
   0.000000000   0.000000000   7.365510677

ATOMIC_SPECIES
W 183.84 W_ONCV_LDA-4.0.upf
O 15.9994 O_ONCV_LDA-3.0.upf

ATOMIC_POSITIONS crystal
W         0.232889993         0.281860003         0.016160000
W         0.767109975         0.718139997         0.983840008
W         0.267109991         0.218140012         0.516160024
W         0.732890025         0.781859972         0.483839976
W         0.767109975         0.281860003         0.483839976
W         0.232889993         0.718139997         0.516160024
W         0.732890025         0.218140012         0.983840008
W         0.267109991         0.781859972         0.016160000
O         0.218429991         0.008320000         0.005030000
O         0.781570025         0.991680023         0.994970041
O         0.281570025         0.491679992         0.505029992
O         0.718429975         0.508319977         0.494970008
O         0.781570025         0.008320000         0.494970008
O         0.218429991         0.991680023         0.505029992
O         0.718429975         0.491679992         0.994970041
O         0.281570025         0.508319977         0.005030000
O         0.504679983         0.217620002         0.449540004
O         0.495320017         0.782379982         0.550459963
O         0.995320017         0.282379982         0.949540037
O         0.004679918         0.717619987         0.050460012
O         0.495320017         0.217620002         0.050460012
O         0.504679983         0.782379982         0.949540037
O         0.004679918         0.282379982         0.550459963
O         0.995320017         0.717619987         0.449540004
O         0.699540037         0.242929991         0.742910030
O         0.300459996         0.757069993         0.257089970
O         0.800459963         0.257070009         0.242910030
O         0.199540020         0.742929976         0.757089970
O         0.300459996         0.242929991         0.757089970
O         0.699540037         0.757069993         0.242910030
O         0.199540020         0.257070009         0.257089970
O         0.800459963         0.742929976         0.742910030

K_POINTS automatic
6 6 6 0 0 0
