&CONTROL
    calculation   = 'scf'
    restart_mode  = 'from_scratch'
    prefix        = 'Landau_29'
    pseudo_dir    = '/cluster/scratch/mnoe/QE/pps'
    outdir        = './'
/
&SYSTEM
    ibrav       = 0
    nat         = 32
    ntyp        = 2
    ecutwfc     = 120
    occupations = 'smearing'
    degauss     = 7.35d-4
    tot_charge  = -0.84
/
&ELECTRONS
    conv_thr    = 1.0d-8
    diagonalization = 'david'
/

CELL_PARAMETERS angstrom
   7.343737340   0.000000000   0.000000000
   0.000000000   7.593767054   0.000000000
   0.000000000   0.000000000   7.343737340

ATOMIC_SPECIES
W 183.84 W_ONCV_LDA-4.0.upf
O 15.9994 O_ONCV_LDA-3.0.upf

ATOMIC_POSITIONS crystal
W 0.276080001	0.281860003	0.25073999099999994	
W -0.25073999700000005	0.718139997	-0.7239200150000002	
W 0.22391999899999998	0.218140012	0.7507400129999999	
W 0.7507399909999999	0.781859972	0.776080001	
W 0.723920009	0.281860003	0.7492599870000001	
W 0.250740013	0.718139997	0.723919999	
W -0.22392001500000014	0.218140012	-0.7507399970000002	
W 0.24925998700000002	0.781859972	0.22392000900000003	
O 0.27867998400000005	0.00832	0.27079998200000005	
O -0.27079999600000004	0.991680023	-0.721320032	
O 0.221320032	0.491679992	0.770799996	
O 0.770799982	0.508319977	0.7786799680000001	
O 0.721320018	0.00832	0.729199988	
O 0.27080001200000003	0.991680023	0.721320016	
O -0.22132003199999994	0.491679992	-0.7707999960000002	
O 0.229200004	0.508319977	0.22132001799999995	
O 0.49077006300000003	0.280920004	0.6995400039999999	
O 0.498109997	0.7301599779999999	0.800459963	
O -0.990770112	0.219079965	1.199540037	
O 0.0018899440000000232	0.769839993	0.300460012	
O 0.509229937	0.280920004	0.300460012	
O 0.501890003	0.7301599779999999	1.199540037	
O -0.00922996299999996	0.219079965	0.800459963	
O -1.001890019	0.769839993	0.6995400039999999	
O 0.6995400369999999	0.23015997699999996	2.0018900029999998	
O 0.300459996	0.7190799659999999	0.49077004700000004	
O 0.800459963	0.269839992	0.501889954	
O 0.19954001999999996	0.7809200049999999	1.990770063	
O 0.300459996	0.23015997699999996	0.9981100070000001	
O 0.699540037	0.7190799659999999	0.509229888	
O 0.19954002	0.269839992	0.49810998100000003	
O 0.800459963	0.7809200049999999	1.009229947	

K_POINTS automatic
6 6 6 0 0 0
