&CONTROL
    calculation   = 'scf'
    restart_mode  = 'from_scratch'
    prefix        = 'Landau_2'
    pseudo_dir    = '/cluster/scratch/mnoe/QE/pps'
    outdir        = './'
/
&SYSTEM
    ibrav       = 0
    nat         = 32
    ntyp        = 2
    ecutwfc     = 120
    occupations = 'smearing'
    degauss     = 7.35d-4
    tot_charge  = -0.2
/
&ELECTRONS
    conv_thr    = 1.0d-8
    diagonalization = 'david'
/

CELL_PARAMETERS angstrom
   7.349870989   0.000000000   0.000000000
   0.000000000   7.729195247   0.000000000
   0.000000000   0.000000000   7.350164347

ATOMIC_SPECIES
W 183.84 W_ONCV_LDA-4.0.upf
O 15.9994 O_ONCV_LDA-3.0.upf

ATOMIC_POSITIONS crystal
W 0.2482867455883172	0.28030999705674087	0.0009623596486787892	
W 0.7510588108427594	0.7196900029432591	-0.0016553758259940856	
W 0.2517132544116828	0.21969001845821517	0.5009623600794741	
W 0.7489411731094415	0.7803099820203793	0.4983446213832015	
W 0.7517132447114276	0.28030999705674087	0.4990376399205259	
W 0.24894118026238535	0.7196900029432591	0.5016553786167984	
W 0.7482867392407733	0.21969001845821517	-0.0009623579254975651	
W 0.2510588197376147	0.7803099820203793	0.0016553775491753096	
O 0.24734124264158683	0.007897732413399148	-0.00023244148917643363	
O 0.7524553348799474	-0.007897720227476715	-0.0010460832369031737	
O 0.2526587555415808	0.49210226473616164	0.49976755594478195	
O 0.7475446485103465	0.5078977202274767	0.49895391614499923	
O 0.7526587453168792	0.007897732413399148	0.5002324418825113	
O 0.24754465259153252	-0.007897720227476715	0.501046081682294	
O 0.7473412380734148	0.49210226473616164	0.00023244096472997607	
O 0.2524553455916351	0.5078977202274767	0.001046082712456716	
O 0.5005227610770556	0.24723391963692024	0.4533300735062799	
O 0.4997645601380265	0.7524798766414249	0.5466699104872705	
O -0.0005227623319810477	0.25276607811545204	0.9533301065062799	
O 0.0002354373333923637	0.7475201144450568	0.04666992807494998	
O 0.49947723892294443	0.24723391963692024	0.04666992807494998	
O 0.5002354398619735	0.7524798766414249	0.9533301065062799	
O 0.0005227573310094397	0.25276607811545204	0.5466699104872705	
O -0.00023544233436397166	0.7475201144450568	0.4533300735062799	
O 0.7033300977520266	0.250083349095991	0.749520125066015	
O 0.2966699182544229	0.7512281375126082	0.2506694175475428	
O 0.7966699187265678	0.2499166503421021	0.24952013755707447	
O 0.2033300895062799	0.7487718536300643	0.7506694099263432	
O 0.2966699182544229	0.250083349095991	0.7504798600099999	
O 0.7033300977520266	0.7512281375126082	0.24933058732231722	
O 0.2033300895062799	0.2499166503421021	0.2504798673127855	
O 0.7966699187265678	0.7487718536300643	0.7493305751496715	

K_POINTS automatic
6 6 6 0 0 0
