&CONTROL
    calculation   = 'scf'
    restart_mode  = 'from_scratch'
    prefix        = 'Landau_14'
    pseudo_dir    = '/cluster/scratch/mnoe/QE/pps'
    outdir        = './'
/
&SYSTEM
    ibrav       = 0
    nat         = 32
    ntyp        = 2
    ecutwfc     = 120
    occupations = 'smearing'
    degauss     = 7.35d-4
    tot_charge  = -1.0
/
&ELECTRONS
    conv_thr    = 1.0d-8
    diagonalization = 'david'
/

CELL_PARAMETERS angstrom
   7.404417459   0.000000000   0.000000000
   0.000000000   7.615195844   0.000000000
   0.000000000   0.000000000   7.428889677

ATOMIC_SPECIES
W 183.84 W_ONCV_LDA-4.0.upf
O 15.9994 O_ONCV_LDA-3.0.upf

ATOMIC_POSITIONS crystal
W 0.237049992	0.2763133426629728	0.01223	
W 0.7629499455158659	0.7236866573370272	0.987770032	
W 0.262950008	0.22368667417978547	0.512229968	
W 0.737049995515866	0.7763133687884826	0.48777	
W 0.7629499455158659	0.2763133426629728	0.48777	
W 0.237049992	0.7236866573370272	0.512229968	
W 0.737049995515866	0.22368667417978547	0.987770032	
W 0.262950008	0.7763133687884826	0.01223	
O 0.226109989	0.006808925229998576	0.0038	
O 0.773889981515866	0.9931910590720755	0.996200004	
O 0.273890011	0.49319108519758525	0.503799963	
O 0.726109959515866	0.5068089409279245	0.496200004	
O 0.773889981515866	0.006808925229998576	0.496200004	
O 0.226109989	0.9931910590720755	0.503799963	
O 0.726109959515866	0.49319108519758525	0.996200004	
O 0.273890011	0.5068089409279245	0.0038	
O 0.503539971	0.225490008	0.4631026798700397	
O 0.496460029	0.7745100806413757	0.5368973479409866	
O 0.996459996	0.274509992	0.9631027128700398	
O 0.003540039	0.7254900056413758	0.03689728453272562	
O 0.496460029	0.225490008	0.03689728453272562	
O 0.503539971	0.7745100806413757	0.9631027128700398	
O 0.003540039	0.274509992	0.5368973479409866	
O 0.996459996	0.7254900056413758	0.4631026798700397	
O 0.7131026815431474	0.244650006	0.744629931515866	
O 0.2868972906458261	0.7553500066413757	0.255370022	
O 0.7868973774251207	0.255349994	0.244629978	
O 0.21310269587003977	0.7446500186413757	0.755370009515866	
O 0.2868972906458261	0.244650006	0.755370009515866	
O 0.7131026815431474	0.7553500066413757	0.244629978	
O 0.21310269587003977	0.255349994	0.255370022	
O 0.7868973774251207	0.7446500186413757	0.744629931515866	

K_POINTS automatic
6 6 6 0 0 0
