&CONTROL
    calculation   = 'scf'
    restart_mode  = 'from_scratch'
    prefix        = 'Landau_19'
    pseudo_dir    = '/cluster/scratch/mnoe/QE/pps'
    outdir        = './'
/
&SYSTEM
    ibrav       = 0
    nat         = 32
    ntyp        = 2
    ecutwfc     = 120
    occupations = 'smearing'
    degauss     = 7.35d-4
    tot_charge  = -0.2
/
&ELECTRONS
    conv_thr    = 1.0d-8
    diagonalization = 'david'
/

CELL_PARAMETERS angstrom
   7.415284399   0.000000000   0.000000000
   0.000000000   7.502381470   0.000000000
   0.000000000   0.000000000   7.441769252

ATOMIC_SPECIES
W 183.84 W_ONCV_LDA-4.0.upf
O 15.9994 O_ONCV_LDA-3.0.upf

ATOMIC_POSITIONS crystal
W 0.22137318509023107	0.27626067869009735	0.00489310889432976	
W 0.7565231600524936	0.7237393213099027	-0.028299871155670286	
W 0.2786268149097689	0.22373933817015743	0.5048931076398515	
W 0.7434767949695277	0.7762607053579976	0.4717000867398515	
W 0.7786267626695277	0.27626067869009735	0.4951068923601485	
W 0.24347681490976894	0.7237393213099027	0.5282999132601485	
W 0.7213731923524936	0.22373933817015743	-0.004893087044329808	
W 0.2565231850902311	0.7762607053579976	0.028299893005670238	
O 0.21414137634281483	0.0067945780019613815	-0.016432673869614445	
O 0.7789883247287372	-0.0067945940673132	-0.026749680519614405	
O 0.2858585875808451	0.49320543260058713	0.4835672805540454	
O 0.7210116113147931	0.5067945940673132	0.4732502986040454	
O 0.7858585429147931	0.0067945780019613815	0.5164326982178165	
O 0.22101157808084504	-0.0067945940673132	0.5267496801678164	
O 0.7141413931287373	0.49320543260058713	0.016432667219614484	
O 0.2789883858428148	0.5067945940673132	0.026749673869614445	
O 0.5096591662868216	0.21190731316282546	0.4632314536457423	
O 0.5000451510868216	0.7784263479058937	0.5367685747426676	
O -0.009659156516757687	0.2880926583371745	0.9632314866457423	
O -4.515746675767297e-05	0.7215737734913503	0.03676851026712186	
O 0.4903408337131784	0.21190731316282546	0.03676851026712186	
O 0.4999548489131783	0.7784263479058937	0.9632314866457423	
O 0.009659118786821613	0.2880926583371745	0.5367685747426676	
O 4.511973682159911e-05	0.7215737734913503	0.4632314536457423	
O 0.7132314550214099	0.26488988133663843	0.7459145482958611	
O 0.28676851659018	0.7794059626081978	0.2604875305835986	
O 0.7867686045067451	0.23511009968487045	0.2459146189335986	
O 0.21323146964574236	0.7205941591064298	0.7604875216958612	
O 0.28676851659018	0.26488988133663843	0.7540854446831423	
O 0.7132314550214099	0.7794059626081978	0.23951253116640145	
O 0.21323146964574236	0.23511009968487045	0.25408544281640144	
O 0.7867686045067451	0.7205941591064298	0.7395124712831422	

K_POINTS automatic
6 6 6 0 0 0
