
&CONTROL
    calculation   = 'vc-relax'
    restart_mode  = 'from_scratch'
    prefix        = 'Landau_29'
    pseudo_dir    = '/cluster/scratch/mnoe/QE/pps'
    outdir        = './'
    forc_conv_thr = 1.0d-7
    etot_conv_thr = 1.0d-7

/
&SYSTEM
    ibrav       = 0
    nat         = 32
    ntyp        = 2
    ecutwfc     = 120
    occupations = 'smearing'
    degauss     = 7.35d-4
    tot_charge  = -0.0
/
&ELECTRONS
    conv_thr    = 1.0d-8
    diagonalization = 'david'
/


&IONS
ion_dynamics = 'bfgs'
/

&CELL
cell_dynamics = 'bfgs'
cell_dofree = 'all'
/
CELL_PARAMETERS angstrom
        7.3236460686         0.0000000000         0.0000000000
        0.0000000000         7.7495899200         0.0000000000
        0.0000000000         0.0000000000         7.3236460686

ATOMIC_SPECIES
W 183.84 W_ONCV_LDA-4.0.upf
O 15.9994 O_ONCV_LDA-3.0.upf

ATOMIC_POSITIONS crystal
W 0.26257	0.2657742017969335	-0.986770003	 0 0 0
W 0.7367699173870019	0.7342257982030664	-0.987429967	 0 0 0
W 0.23743	0.23422581855387858	-0.486770003	 0 0 0
W 0.763229878387002	0.7657743676721175	-0.48743000000000003	 0 0 0
W 0.7374298813870019	0.2657742017969335	-0.513229997	 0 0 0
W 0.263229997	0.7342257982030664	-0.51257	 0 0 0
W 0.762569914387002	0.23422581855387858	-1.013229964	 0 0 0
W 0.236770003	0.7657743676721175	-1.01257	 0 0 0
O 0.27680002	0.003942283390547274	-0.973340015	 0 0 0
O 0.723339929387002	0.9960576172423926	-0.973199948	 0 0 0
O 0.223199997	0.4960577831175766	-0.473339999	 0 0 0
O 0.776659866387002	0.5039423827576074	-0.47319999700000004	 0 0 0
O 0.723199862387002	0.003942283390547274	-0.526659985	 0 0 0
O 0.276659985	0.9960576172423926	-0.52680002	 0 0 0
O 0.776799934387002	0.4960577831175766	-1.0266599520000002	 0 0 0
O 0.223339999	0.5039423827576074	-1.02680002	 0 0 0
O 0.494420066	0.282010007	-0.5112080717751317	 0 0 0
O 0.503659951	0.7273500952621859	-0.4887917356480598	 0 0 0
O 0.005580008	0.217989993	-1.0112080717751317	 0 0 0
O 0.996340017	0.7726500652621859	-0.988792046047615	 0 0 0
O 0.50558	0.282010007	-0.988792046047615	 0 0 0
O 0.496340017	0.7273500952621859	-1.0112080717751317	 0 0 0
O 0.994419968	0.217989993	-0.4887917356480598	 0 0 0
O 0.003659993	0.7726500652621859	-0.5112080717751317	 0 0 0
O 0.7387918052610579	0.22735	-0.25366007861299805	 0 0 0
O 0.2612079861621334	0.7179900422621859	-0.75558	 0 0 0
O 0.7612083339649383	0.272650016	-0.753659951	 0 0 0
O 0.2387919122248682	0.7820101182621859	-0.2555800936129981	 0 0 0
O 0.2612079861621334	0.22735	-1.246340102612998	 0 0 0
O 0.7387918052610579	0.7179900422621859	-0.744420066	 0 0 0
O 0.2387919122248682	0.272650016	-0.7463400170000001	 0 0 0
O 0.7612083339649383	0.7820101182621859	-1.244420053612998	 0 0 0

K_POINTS automatic
6 6 6 0 0 0
