&CONTROL
    calculation   = 'scf'
    restart_mode  = 'from_scratch'
    prefix        = 'Landau_17'
    pseudo_dir    = '/cluster/scratch/mnoe/QE/pps'
    outdir        = './'
/
&SYSTEM
    ibrav       = 0
    nat         = 32
    ntyp        = 2
    ecutwfc     = 120
    occupations = 'smearing'
    degauss     = 7.35d-4
    tot_charge  = -0.2
/
&ELECTRONS
    conv_thr    = 1.0d-8
    diagonalization = 'david'
/

CELL_PARAMETERS angstrom
   7.499157000   0.000000000   0.000000000
   0.000000000   7.575410411   0.000000000
   0.000000000   0.000000000   7.491856369

ATOMIC_SPECIES
W 183.84 W_ONCV_LDA-4.0.upf
O 15.9994 O_ONCV_LDA-3.0.upf

ATOMIC_POSITIONS crystal
W 0.23717657382930246	0.26868495248229735	-0.005714804062468453	
W 0.7450282837424187	0.7313150475177026	-0.013129413934821046	
W 0.26282342617069754	0.23131506689482906	0.49428518940146626	
W 0.7549715879035159	0.7686850571732233	0.48687057040408743	
W 0.762823347436065	0.26868495248229735	0.5057148105985337	
W 0.2549716594230116	0.7313150475177026	0.5131294295959126	
W 0.7371765242098698	0.23131506689482906	0.005714808943296419	
W 0.2450283405769884	0.7686850571732233	0.013129418815649012	
O 0.23999174980170232	0.004730725513892756	-0.016230220162266773	
O 0.7544771234867682	-0.004730794433552232	-0.018534821293138024	
O 0.26000822999591405	0.4952693102573737	0.48376975751325046	
O 0.7455227328800528	0.5047307944335522	0.4814651618998369	
O 0.7600081662008592	0.004730725513892756	0.516230243632683	
O 0.24552277927389485	-0.004730794433552232	0.5185348392460966	
O 0.7399916901659618	0.4952693102573737	0.016230218676797397	
O 0.2544772005237215	0.5047307944335522	0.018534819807668648	
O 0.5049801367845801	0.23867945125995113	0.4817555948033791	
O 0.5028325690787734	0.7535384503603519	0.5182445166417999	
O -0.004980110682760956	0.26132054237375146	0.9817556278033791	
O -0.0028325465845227063	0.7464616947535734	0.018244298637074892	
O 0.49501986321541985	0.23867945125995113	0.018244298637074892	
O 0.4971674309212266	0.7535384503603519	0.9817556278033791	
O 0.004980126174084547	0.26132054237375146	0.5182445166417999	
O 0.0028325620758462974	0.7464616947535734	0.4817555948033791	
O 0.7317555533922263	0.2662094265618198	0.7509493809651016	
O 0.26824433516259444	0.7694520765070885	0.25420472830183344	
O 0.7682445866758261	0.23379055815906655	0.2509494479857471	
O 0.2317556108033791	0.730548068309743	0.7542046750748322	
O 0.26824433516259444	0.2662094265618198	0.7490505212390605	
O 0.7317555533922263	0.7694520765070885	0.2457952854918109	
O 0.2317556108033791	0.23379055815906655	0.24905056580789725	
O 0.7682445866758261	0.730548068309743	0.7457952271293298	

K_POINTS automatic
6 6 6 0 0 0
