
&CONTROL
    calculation   = 'vc-relax'
    restart_mode  = 'from_scratch'
    prefix        = 'Landau_1'
    pseudo_dir    = '/cluster/scratch/mnoe/QE/pps'
    outdir        = './'
    forc_conv_thr = 1.0d-7
    etot_conv_thr = 1.0d-7

/
&SYSTEM
    ibrav       = 0
    nat         = 32
    ntyp        = 2
    ecutwfc     = 120
    occupations = 'smearing'
    degauss     = 7.35d-4
    tot_charge  = -0.0
/
&ELECTRONS
    conv_thr    = 1.0d-8
    diagonalization = 'david'
/


&IONS
ion_dynamics = 'bfgs'
/

&CELL
cell_dynamics = 'bfgs'
cell_dofree = 'all'
/
CELL_PARAMETERS angstrom
        7.3236460686         0.0000000000         0.0000000000
        0.0000000000         7.7495899200         0.0000000000
        0.0000000000         0.0000000000         7.3236460686

ATOMIC_SPECIES
W 183.84 W_ONCV_LDA-4.0.upf
O 15.9994 O_ONCV_LDA-3.0.upf

ATOMIC_POSITIONS crystal
W 0.250429986	0.28132465082058394	-0.999539963	 0 0 0
W 0.7495399600478276	0.7186753491794161	-0.999569982	 0 0 0
W 0.249569998	0.21867536436392687	-0.499539995	 0 0 0
W 0.7504600020478276	0.7813246565404178	-0.499569998	 0 0 0
W 0.7495699790478276	0.28132465082058394	-0.500460005	 0 0 0
W 0.250460005	0.7186753491794161	-0.500429986	 0 0 0
W 0.7504299830478276	0.21867536436392687	-1.0004600049999999	 0 0 0
W 0.249539995	0.7813246565404178	-1.0004299859999999	 0 0 0
O 0.250919994	0.008178686875536113	-0.999079974	 0 0 0
O 0.7490799710478276	0.9918213222497376	-0.999079974	 0 0 0
O 0.249080006	0.49182132796957156	-0.499080006	 0 0 0
O 0.7509199910478276	0.5081786777502624	-0.499080006	 0 0 0
O 0.7490799710478276	0.008178686875536113	-0.500919994	 0 0 0
O 0.250919994	0.9918213222497376	-0.500919994	 0 0 0
O 0.7509199910478276	0.49182132796957156	-1.000919994	 0 0 0
O 0.249080006	0.5081786777502624	-1.000919994	 0 0 0
O 0.499809988	0.251100008	-0.5492319793025907	 0 0 0
O 0.500130007	0.7492200447676616	-0.45076799860855377	 0 0 0
O 0.00019002	0.248899992	-1.0492319793025906	 0 0 0
O 0.999870026	0.7507799607676615	-0.9507679938637108	 0 0 0
O 0.500190012	0.251100008	-0.9507679938637108	 0 0 0
O 0.499869993	0.7492200447676616	-1.0492319793025906	 0 0 0
O 0.999809988	0.248899992	-0.45076799860855377	 0 0 0
O 0.000129998	0.7507799607676615	-0.5492319793025907	 0 0 0
O 0.7007679855607262	0.249220011	-0.25013000095217236	 0 0 0
O 0.29923197635041837	0.7489000257676616	-0.750190012	 0 0 0
O 0.7992319883436186	0.250779989	-0.750130007	 0 0 0
O 0.20076800469740924	0.7510999797676615	-0.25019002295217235	 0 0 0
O 0.29923197635041837	0.249220011	-1.2498700289521723	 0 0 0
O 0.7007679855607262	0.7489000257676616	-0.749809988	 0 0 0
O 0.20076800469740924	0.250779989	-0.749869993	 0 0 0
O 0.7992319883436186	0.7510999797676615	-1.2498099909521723	 0 0 0

K_POINTS automatic
6 6 6 0 0 0
