
&CONTROL
    calculation   = 'vc-relax'
    restart_mode  = 'from_scratch'
    prefix        = 'Landau_1'
    pseudo_dir    = '/cluster/scratch/mnoe/QE/pps'
    outdir        = './'
    forc_conv_thr = 1.0d-7
    etot_conv_thr = 1.0d-7

/
&SYSTEM
    ibrav       = 0
    nat         = 32
    ntyp        = 2
    ecutwfc     = 120
    occupations = 'smearing'
    degauss     = 7.35d-4
    tot_charge  = -0.0
/
&ELECTRONS
    conv_thr    = 1.0d-8
    diagonalization = 'david'
/


&IONS
ion_dynamics = 'bfgs'
/

&CELL
cell_dynamics = 'bfgs'
cell_dofree = 'all'
/
CELL_PARAMETERS angstrom
        7.3236460686         0.0000000000         0.0000000000
        0.0000000000         7.7495899200         0.0000000000
        0.0000000000         0.0000000000         7.3236460686

ATOMIC_SPECIES
W 183.84 W_ONCV_LDA-4.0.upf
O 15.9994 O_ONCV_LDA-3.0.upf

ATOMIC_POSITIONS crystal
W 0.24820149945	0.2817601765904932	-5.1499099999999915e-05	 0 0 0
W 0.7500514997193573	0.7182398234095068	-0.0017984980500000023	 0 0 0
W 0.25179850055	0.218239838442672	0.49994850055	 0 0 0
W 0.7499485003693572	0.7817601466186136	0.49820149945	 0 0 0
W 0.7517984986693572	0.2817601765904932	0.50005149945	 0 0 0
W 0.24994850055	0.7182398234095068	0.50179850055	 0 0 0
W 0.7482015014193573	0.218239838442672	5.1500249999997054e-05	 0 0 0
W 0.25005149945	0.7817601466186136	0.0017984991999999995	 0 0 0
O 0.248021999	0.008292804325554492	-0.0014349982000000005	 0 0 0
O 0.7514349973193573	-0.008292782022023115	-0.0019779985499999986	 0 0 0
O 0.25197799855	0.49170718800609725	0.49856499885	 0 0 0
O 0.7485650012693572	0.5082927820220231	0.4980219998	 0 0 0
O 0.7519779976693572	0.008292804325554492	0.5014350003	 0 0 0
O 0.24856499805	-0.008292782022023115	0.50197799935	 0 0 0
O 0.7480220009193572	0.49170718800609725	0.0014349978500000026	 0 0 0
O 0.2514349995	0.5082927820220231	0.0019779982000000004	 0 0 0
O 0.5006364997	0.24786750015	0.44978409921282075	 0 0 0
O 0.5001304989	0.7513684870474776	0.55021586888163	 0 0 0
O -0.0006364981000000006	0.25213249835	0.9497841322128208	 0 0 0
O -0.00013049814999999983	0.7486314899974776	0.0502159158585544	 0 0 0
O 0.4993635003	0.24786750015	0.0502159158585544	 0 0 0
O 0.4998695011	0.7513684870474776	0.9497841322128208	 0 0 0
O 0.0006364972000000008	0.25213249835	0.55021586888163	 0 0 0
O 0.00013049725000000012	0.7486314899974776	0.44978409921282075	 0 0 0
O 0.6997841316490128	0.25136849855	0.7498695022193572	 0 0 0
O 0.3002159002565365	0.7521324883974776	0.2506364997	 0 0 0
O 0.8002158694122727	0.24863149995	0.24986950435	 0 0 0
O 0.19978411521282075	0.7478674886474775	0.7506365008193572	 0 0 0
O 0.3002159002565365	0.25136849855	0.7501305008693572	 0 0 0
O 0.6997841316490128	0.7521324883974776	0.24936350355	 0 0 0
O 0.19978411521282075	0.24863149995	0.2501304989	 0 0 0
O 0.8002158694122727	0.7478674886474775	0.7493635022693572	 0 0 0

K_POINTS automatic
6 6 6 0 0 0
