&CONTROL
    calculation   = 'scf'
    restart_mode  = 'from_scratch'
    prefix        = 'Landau_16'
    pseudo_dir    = '/cluster/scratch/mnoe/QE/pps'
    outdir        = './'
/
&SYSTEM
    ibrav       = 0
    nat         = 32
    ntyp        = 2
    ecutwfc     = 120
    occupations = 'smearing'
    degauss     = 7.35d-4
    tot_charge  = -0.2
/
&ELECTRONS
    conv_thr    = 1.0d-8
    diagonalization = 'david'
/

CELL_PARAMETERS angstrom
   7.488501744   0.000000000   0.000000000
   0.000000000   7.615114085   0.000000000
   0.000000000   0.000000000   7.489879396

ATOMIC_SPECIES
W 183.84 W_ONCV_LDA-4.0.upf
O 15.9994 O_ONCV_LDA-3.0.upf

ATOMIC_POSITIONS crystal
W 0.2463041885862689	0.26929334247986414	0.003490044815875341	
W 0.7536957412175453	0.7307066575201359	-0.0034900402210827834	
W 0.2536958114137311	0.23070667669513784	0.5034900468136112	
W 0.7463041251823852	0.7692934409049316	0.49650995318638874	
W 0.7536957412175453	0.26929334247986414	0.49650995318638874	
W 0.2463041885862689	0.7307066575201359	0.5034900468136112	
W 0.7463041251823852	0.23070667669513784	-0.0034900402210827834	
W 0.2536958114137311	0.7692934409049316	0.003490044815875341	
O 0.24318172477858427	0.0048964689919109355	0.001084770593327562	
O 0.756818198632475	-0.004896533666956597	-0.0010847719917426834	
O 0.2568182720250383	0.49510356475811085	0.5010847653992142	
O 0.7431816677674554	0.5048965336669566	0.4989152280082573	
O 0.756818198632475	0.0048964689919109355	0.4989152280082573	
O 0.24318172477858427	-0.004896533666956597	0.5010847653992142	
O 0.7431816677674554	0.49510356475811085	-0.0010847719917426834	
O 0.2568182720250383	0.5048965336669566	0.001084770593327562	
O 0.5010108559632417	0.2430059268162749	0.4802679615541445	
O 0.4989891440367583	0.7569941238053617	0.5197321432209271	
O -0.0010108625557701302	0.25699406719051743	0.9802679945541445	
O 0.001010845974562163	0.7430059834311191	0.019731937545794564	
O 0.4989891440367583	0.2430059268162749	0.019731937545794564	
O 0.5010108559632417	0.7569941238053617	0.9802679945541445	
O 0.001010845974562163	0.25699406719051743	0.5197321432209271	
O -0.0010108625557701302	0.7430059834311191	0.4802679615541445	
O 0.7302679235791076	0.2484737301724712	0.7484676725620216	
O 0.2697319716458205	0.7515263266421466	0.25153226063794365	
O 0.7697322100209618	0.2515262698275288	0.24846775234733967	
O 0.23026797755414452	0.7484737807941078	0.7515321938379089	
O 0.2697319716458205	0.2484737301724712	0.7515321938379089	
O 0.7302679235791076	0.7515263266421466	0.24846775234733967	
O 0.23026797755414452	0.2515262698275288	0.25153226063794365	
O 0.7697322100209618	0.7484737807941078	0.7484676725620216	

K_POINTS automatic
6 6 6 0 0 0
