&CONTROL
    calculation   = 'scf'
    restart_mode  = 'from_scratch'
    prefix        = 'Landau_1'
    pseudo_dir    = '/cluster/scratch/mnoe/QE/pps'
    outdir        = './'
/
&SYSTEM
    ibrav       = 0
    nat         = 32
    ntyp        = 2
    ecutwfc     = 120
    occupations = 'smearing'
    degauss     = 7.35d-4
    tot_charge  = -0.2
/
&ELECTRONS
    conv_thr    = 1.0d-8
    diagonalization = 'david'
/

CELL_PARAMETERS angstrom
   7.337055594   0.000000000   0.000000000
   0.000000000   7.739257868   0.000000000
   0.000000000   0.000000000   7.337135602

ATOMIC_SPECIES
W 183.84 W_ONCV_LDA-4.0.upf
O 15.9994 O_ONCV_LDA-3.0.upf

ATOMIC_POSITIONS crystal
W 0.2493070353599254	0.2810745867174915	0.0006543834029766265	
W 0.7506929598282941	0.7189254132825085	-0.0006543825414530219	
W 0.25069296464007457	0.2189254285434461	0.5006543837775521	
W 0.7493070318217016	0.7810745638065583	0.4993456162224479	
W 0.7506929598282941	0.2810745867174915	0.4993456162224479	
W 0.2493070353599254	0.7189254132825085	0.5006543837775521	
W 0.7493070318217016	0.2189254285434461	-0.0006543825414530219	
W 0.25069296464007457	0.7810745638065583	0.0006543834029766265	
O 0.24872157339598455	0.008106029311994433	0.0002033944862489179	
O 0.7512784205935934	-0.008106011791684768	-0.00020339474845175313	
O 0.2512784260046947	0.49189396529738194	0.5002033935123527	
O 0.7487215710564022	0.5081060117916848	0.49979660525154823	
O 0.7512784205935934	0.008106029311994433	0.49979660525154823	
O 0.24872157339598455	-0.008106011791684768	0.5002033935123527	
O 0.7487215710564022	0.49189396529738194	-0.00020339474845175313	
O 0.2512784260046947	0.5081060117916848	0.0002033944862489179	
O 0.5001895354931079	0.24868861127805153	0.451460501347134	
O 0.4998104645068922	0.7513113781978762	0.5485394742638079	
O -0.00018953672920689942	0.251311387598222	0.9514605343471341	
O 0.00018953362023040553	0.7486886018777057	0.04853950734661216	
O 0.4998104645068922	0.24868861127805153	0.04853950734661216	
O 0.5001895354931079	0.7513113781978762	0.9514605343471341	
O 0.00018953362023040553	0.251311387598222	0.5485394742638079	
O -0.00018953672920689942	0.7486886018777057	0.451460501347134	
O 0.7014605299111942	0.24971382440733836	0.7497126969553833	
O 0.29853949447786376	0.7502861662297734	0.2502872988696144	
O 0.7985394784388101	0.25028617559266164	0.2497127035651262	
O 0.20146051734713405	0.7497138138832661	0.7502872946946123	
O 0.29853949447786376	0.24971382440733836	0.7502872946946123	
O 0.7014605299111942	0.7502861662297734	0.2497127035651262	
O 0.20146051734713405	0.25028617559266164	0.2502872988696144	
O 0.7985394784388101	0.7497138138832661	0.7497126969553833	

K_POINTS automatic
6 6 6 0 0 0
