
&CONTROL
    calculation   = 'vc-relax'
    restart_mode  = 'from_scratch'
    prefix        = 'Landau_17'
    pseudo_dir    = '/cluster/scratch/mnoe/QE/pps'
    outdir        = './'
    forc_conv_thr = 1.0d-7
    etot_conv_thr = 1.0d-7

/
&SYSTEM
    ibrav       = 0
    nat         = 32
    ntyp        = 2
    ecutwfc     = 120
    occupations = 'smearing'
    degauss     = 7.35d-4
    tot_charge  = -0.0
/
&ELECTRONS
    conv_thr    = 1.0d-8
    diagonalization = 'david'
/


&IONS
ion_dynamics = 'bfgs'
/

&CELL
cell_dynamics = 'bfgs'
cell_dofree = 'all'
/
CELL_PARAMETERS angstrom
        7.3236460686         0.0000000000         0.0000000000
        0.0000000000         7.7495899200         0.0000000000
        0.0000000000         0.0000000000         7.3236460686

ATOMIC_SPECIES
W 183.84 W_ONCV_LDA-4.0.upf
O 15.9994 O_ONCV_LDA-3.0.upf

ATOMIC_POSITIONS crystal
W 0.25	0.27509430540294805	0.0	 0 0 0
W 0.7499999640358842	0.7249056945970519	0.0	 0 0 0
W 0.25	0.22490571184480906	0.5	 0 0 0
W 0.7499999640358842	0.7750943440834226	0.5	 0 0 0
W 0.7499999640358842	0.27509430540294805	0.5	 0 0 0
W 0.25	0.7249056945970519	0.5	 0 0 0
W 0.7499999640358842	0.22490571184480906	0.0	 0 0 0
W 0.25	0.7750943440834226	0.0	 0 0 0
O 0.25	0.006476823328063409	0.0	 0 0 0
O 0.7499999640358842	0.9935231524690346	0.0	 0 0 0
O 0.25	0.49352319114950904	0.5	 0 0 0
O 0.7499999640358842	0.5064768475309654	0.5	 0 0 0
O 0.7499999640358842	0.006476823328063409	0.5	 0 0 0
O 0.25	0.9935231524690346	0.5	 0 0 0
O 0.7499999640358842	0.49352319114950904	0.0	 0 0 0
O 0.25	0.5064768475309654	0.0	 0 0 0
O 0.5	0.25	0.46608346582530136	 0 0 0
O 0.5	0.7500000187163587	0.5339165753506875	 0 0 0
O 0.0	0.25	0.9660834988253013	 0 0 0
O 0.0	0.7500000187163587	0.03391648723749587	 0 0 0
O 0.5	0.25	0.03391648723749587	 0 0 0
O 0.5	0.7500000187163587	0.9660834988253013	 0 0 0
O 0.0	0.25	0.5339165753506875	 0 0 0
O 0.0	0.7500000187163587	0.46608346582530136	 0 0 0
O 0.7160834606134283	0.25	0.7499999640358842	 0 0 0
O 0.2839164982105827	0.7500000187163587	0.25	 0 0 0
O 0.7839166113148034	0.25	0.25	 0 0 0
O 0.21608348182530135	0.7500000187163587	0.7499999640358842	 0 0 0
O 0.2839164982105827	0.25	0.7499999640358842	 0 0 0
O 0.7160834606134283	0.7500000187163587	0.25	 0 0 0
O 0.21608348182530135	0.25	0.25	 0 0 0
O 0.7839166113148034	0.7500000187163587	0.7499999640358842	 0 0 0

K_POINTS automatic
6 6 6 0 0 0
