
&CONTROL
    calculation   = 'vc-relax'
    restart_mode  = 'from_scratch'
    prefix        = 'Landau_17'
    pseudo_dir    = '/cluster/scratch/mnoe/QE/pps'
    outdir        = './'
    forc_conv_thr = 1.0d-7
    etot_conv_thr = 1.0d-7

/
&SYSTEM
    ibrav       = 0
    nat         = 16
    ntyp        = 2
    ecutwfc     = 120
    occupations = 'smearing'
    degauss     = 7.35d-4
    tot_charge  = -0.0
/
&ELECTRONS
    conv_thr    = 1.0d-8
    diagonalization = 'david'
/


&IONS
ion_dynamics = 'bfgs'
/

&CELL
cell_dynamics = 'bfgs'
cell_dofree = 'all'
/
CELL_PARAMETERS angstrom
        5.177959919             0.0             0.0
        0.0             5.177959919             0.0
        0.0             0.0            7.7496299744

ATOMIC_SPECIES
W 183.84 W_ONCV_LDA-4.0.upf
O 15.9994 O_ONCV_LDA-3.0.upf

ATOMIC_POSITIONS crystal
W       0.24999999999995667	0.24999999999992284	0.212348553993065	 0 0 0
W       0.750000022999962	0.7500000229999857	0.7876514610052915	 0 0 0
W       0.7500000230000127	0.7500000230000329	0.28765146100693406	 0 0 0
W       0.24999999999994876	0.25000000000002437	0.7123485389947086	 0 0 0
O      0.24999999999981606	0.24999999999994174	0.4807480882024419	 0 0 0
O      0.7500000229999949	0.7500000230002193	0.5192519118000847	 0 0 0
O      0.7500000229999129	0.7500000230000129	0.019251924797561538	 0 0 0
O      0.24999999999984263	0.2500000000000366	0.9807480881999097	 0 0 0
O       0.47925200109969723	0.5207479529002537	0.2500000000000285	 0 0 0
O       0.5207479989184486	0.47925204708157193	0.749999999999999	 0 0 0
O       0.02074798190048416	0.9792520470994219	0.2500000000000028	 0 0 0
O       0.9792519550817995	0.020748015918268487	0.7500000000001389	 0 0 0
O       0.9792520470995316	0.47925200109950633	0.25000000000010675	 0 0 0
O       0.02074801591843513	0.5207479989184324	0.7499999999999832	 0 0 0
O       0.5207479529003872	0.02074798190042155	0.24999999999991943	 0 0 0
O       0.4792520470818113	0.9792519550817667	0.7499999999998267	 0 0 0

K_POINTS automatic
9 9 6 0 0 0
