
&CONTROL
    calculation   = 'vc-relax'
    restart_mode  = 'from_scratch'
    prefix        = 'Landau_4'
    pseudo_dir    = '/cluster/scratch/mnoe/QE/pps'
    outdir        = './'
    forc_conv_thr = 1.0d-7
    etot_conv_thr = 1.0d-7

/
&SYSTEM
    ibrav       = 0
    nat         = 32
    ntyp        = 2
    ecutwfc     = 120
    occupations = 'smearing'
    degauss     = 7.35d-4
    tot_charge  = -0.0
/
&ELECTRONS
    conv_thr    = 1.0d-8
    diagonalization = 'david'
/


&IONS
ion_dynamics = 'bfgs'
/

&CELL
cell_dynamics = 'bfgs'
cell_dofree = 'all'
/
CELL_PARAMETERS angstrom
        7.3236460686         0.0000000000         0.0000000000
        0.0000000000         7.7495899200         0.0000000000
        0.0000000000         0.0000000000         7.3236460686

ATOMIC_SPECIES
W 183.84 W_ONCV_LDA-4.0.upf
O 15.9994 O_ONCV_LDA-3.0.upf

ATOMIC_POSITIONS crystal
W 0.2475697720330981	0.27875999111348176	0.0011293555888436608	 0 0 0
W 0.7512665519184644	0.7212400088865183	-0.0023616176076403294	 0 0 0
W 0.2524302279669019	0.22124002491643036	0.501129356021802	 0 0 0
W 0.7487334158903497	0.7787599920407584	0.4976383785290404	 0 0 0
W 0.7524302094567344	0.27875999111348176	0.498870643978198	 0 0 0
W 0.24873343100346046	0.7212400088865183	0.5023616214709595	 0 0 0
W 0.7475697583520796	0.22124002491643036	-0.0011293532908347428	 0 0 0
W 0.25126656899653954	0.7787599920407584	0.0023616199056492476	 0 0 0
O 0.2464091097720162	0.007475464826798295	-0.0005941504839650399	 0 0 0
O 0.7532291818258051	-0.00747546345495345	-0.0016792110488448387	 0 0 0
O 0.25359088753032133	0.4925245374723232	0.4994058458192382	 0 0 0
O 0.7467707849838748	0.5074754634549534	0.4983207878521076	 0 0 0
O 0.7535908686205	0.007475464826798295	0.5005941514164901	 0 0 0
O 0.2467707957007948	-0.00747546345495345	0.5016792093836208	 0 0 0
O 0.7464090981891799	0.4925245374723232	0.0005941497845710239	 0 0 0
O 0.2532292016015427	0.5074754634549534	0.0016792103494508229	 0 0 0
O 0.5007610075933165	0.24624758476863998	0.45712014301255977	 0 0 0
O 0.4997498820684847	0.7532435254854982	0.5428798579745412	 0 0 0
O -0.0007610087256691264	0.25375241223395706	0.9571201760125598	 0 0 0
O 0.0002501151006343978	0.746756483438245	0.042879844149899975	 0 0 0
O 0.49923899240668346	0.24624758476863998	0.042879844149899975	 0 0 0
O 0.5002501179315153	0.7532435254854982	0.9571201760125598	 0 0 0
O 0.0007610025976449695	0.25375241223395706	0.5428798579745412	 0 0 0
O -0.00025012122865855467	0.746756483438245	0.45712014301255977	 0 0 0
O 0.7071201585040533	0.2504026501018292	0.7494021708927889	 0 0 0
O 0.29287984050884575	0.7519293334780467	0.25093485551311623	 0 0 0
O 0.7928798744531356	0.24959734889903665	0.2494021927667088	 0 0 0
O 0.20712015901255978	0.7480706755123054	0.7509348401335694	 0 0 0
O 0.29287984050884575	0.2504026501018292	0.7505977989142935	 0 0 0
O 0.7071201585040533	0.7519293334780467	0.24906515098125684	 0 0 0
O 0.20712015901255978	0.24959734889903665	0.25059781372766426	 0 0 0
O 0.7928798744531356	0.7480706755123054	0.749065129673513	 0 0 0

K_POINTS automatic
6 6 6 0 0 0
