&CONTROL
    calculation   = 'scf'
    restart_mode  = 'from_scratch'
    prefix        = 'Landau_5'
    pseudo_dir    = '/cluster/scratch/mnoe/QE/pps'
    outdir        = './'
/
&SYSTEM
    ibrav       = 0
    nat         = 32
    ntyp        = 2
    ecutwfc     = 120
    occupations = 'smearing'
    degauss     = 7.35d-4
    tot_charge  = -0.52
/
&ELECTRONS
    conv_thr    = 1.0d-8
    diagonalization = 'david'
/

CELL_PARAMETERS angstrom
   7.323324287   0.000000000   0.000000000
   0.000000000   7.747035896   0.000000000
   0.000000000   0.000000000   7.324234939

ATOMIC_SPECIES
W 183.84 W_ONCV_LDA-4.0.upf
O 15.9994 O_ONCV_LDA-3.0.upf

ATOMIC_POSITIONS crystal
W         0.247690009         0.281860003         0.002180000
W         0.752309975         0.718139997         0.997819989
W         0.252309975         0.218140012         0.502179979
W         0.747690025         0.781859972         0.497819989
W         0.752309975         0.281860003         0.497819989
W         0.247690009         0.718139997         0.502179979
W         0.747690025         0.218140012         0.997819989
W         0.252309975         0.781859972         0.002180000
O         0.245729994         0.008320000         0.000680000
O         0.754270038         0.991680023         0.999319971
O         0.254270022         0.491679992         0.500680029
O         0.745729962         0.508319977         0.499320004
O         0.754270038         0.008320000         0.499320004
O         0.245729994         0.991680023         0.500680029
O         0.745729962         0.491679992         0.999319971
O         0.254270022         0.508319977         0.000680000
O         0.500630023         0.245620002         0.449540004
O         0.499369977         0.754379982         0.550459963
O         0.999369977         0.254379982         0.949540037
O         0.000630021         0.745619987         0.050460012
O         0.499369977         0.245620002         0.050460012
O         0.500630023         0.754379982         0.949540037
O         0.000630021         0.254379982         0.550459963
O         0.999369977         0.745619987         0.449540004
O         0.699540037         0.249039987         0.749039990
O         0.300459996         0.750960013         0.250959994
O         0.800459963         0.250959997         0.249040006
O         0.199540020         0.749040018         0.750960010
O         0.300459996         0.249039987         0.750960010
O         0.699540037         0.750960013         0.249040006
O         0.199540020         0.250959997         0.250959994
O         0.800459963         0.749040018         0.749039990

K_POINTS automatic
6 6 6 0 0 0
