
&CONTROL
    calculation   = 'vc-relax'
    restart_mode  = 'from_scratch'
    prefix        = 'Landau_7'
    pseudo_dir    = '/cluster/scratch/mnoe/QE/pps'
    outdir        = './'
    forc_conv_thr = 1.0d-7
    etot_conv_thr = 1.0d-7

/
&SYSTEM
    ibrav       = 0
    nat         = 32
    ntyp        = 2
    ecutwfc     = 120
    occupations = 'smearing'
    degauss     = 7.35d-4
    tot_charge  = -0.0
/
&ELECTRONS
    conv_thr    = 1.0d-8
    diagonalization = 'david'
/


&IONS
ion_dynamics = 'bfgs'
/

&CELL
cell_dynamics = 'bfgs'
cell_dofree = 'all'
/
CELL_PARAMETERS angstrom
        7.3236460686         0.0000000000         0.0000000000
        0.0000000000         7.3236460686         0.0000000000
        0.0000000000         0.0000000000         7.7495899200

ATOMIC_SPECIES
W 183.84 W_ONCV_LDA-4.0.upf
O 15.9994 O_ONCV_LDA-3.0.upf

ATOMIC_POSITIONS crystal
W 0.246959999         0.246810001         0.218119991 0 0 0
W 0.753040018         0.753189983         0.218119991 0 0 0
W 0.246810001         0.753040018         0.781880024 0 0 0
W 0.753189983         0.246959999         0.781880024 0 0 0
W 0.253040018         0.746810050         0.281880024 0 0 0
W 0.746960015         0.253189983         0.281880024 0 0 0
W 0.253189983         0.253040018         0.718119976 0 0 0
W 0.746810050         0.746960015         0.718119976 0 0 0
O 0.243530010         0.243559996         0.491670026 0 0 0
O 0.756469941         0.756439987         0.491670026 0 0 0
O 0.243559996         0.756469941         0.508329974 0 0 0
O 0.756439987         0.243530010         0.508329974 0 0 0
O 0.256469990         0.743560045         0.008329987 0 0 0
O 0.743530026         0.256439987         0.008329987 0 0 0
O 0.256439987         0.256469990         0.991670026 0 0 0
O 0.743560045         0.743530026         0.991670026 0 0 0
O 0.199410008         0.499120005         0.255470014 0 0 0
O 0.800589976         0.500879995         0.255470014 0 0 0
O 0.499120005         0.800589976         0.744529955 0 0 0
O 0.500879995         0.199410008         0.744529955 0 0 0
O 0.300589976         0.999120005         0.244529986 0 0 0
O 0.699409992         0.000880003         0.244529986 0 0 0
O 0.000880003         0.300589976         0.755470045 0 0 0
O 0.999120005         0.699409992         0.755470045 0 0 0
O 0.998649988         0.199410008         0.242269993 0 0 0
O 0.001349986         0.800589976         0.242269993 0 0 0
O 0.199410008         0.001349986         0.757729992 0 0 0
O 0.800589976         0.998649988         0.757729992 0 0 0
O 0.501349979         0.699409992         0.257730007 0 0 0
O 0.498650086         0.300589976         0.257730007 0 0 0
O 0.300589976         0.501349979         0.742270008 0 0 0
O 0.699409992         0.498650086         0.742270008 0 0 0

K_POINTS automatic
6 6 6 0 0 0
