
&CONTROL
    calculation   = 'vc-relax'
    restart_mode  = 'from_scratch'
    prefix        = 'Landau_15'
    pseudo_dir    = '/cluster/scratch/mnoe/QE/pps'
    outdir        = './'
    forc_conv_thr = 1.0d-7
    etot_conv_thr = 1.0d-7

/
&SYSTEM
    ibrav       = 0
    nat         = 32
    ntyp        = 2
    ecutwfc     = 120
    occupations = 'smearing'
    degauss     = 7.35d-4
    tot_charge  = -0.0
/
&ELECTRONS
    conv_thr    = 1.0d-8
    diagonalization = 'david'
/


&IONS
ion_dynamics = 'bfgs'
/

&CELL
cell_dynamics = 'bfgs'
cell_dofree = 'all'
/
CELL_PARAMETERS angstrom
        7.3236460686         0.0000000000         0.0000000000
        0.0000000000         7.7495899200         0.0000000000
        0.0000000000         0.0000000000         7.3236460686

ATOMIC_SPECIES
W 183.84 W_ONCV_LDA-4.0.upf
O 15.9994 O_ONCV_LDA-3.0.upf

ATOMIC_POSITIONS crystal
W 0.22305186099132776	0.2786925173096786	-0.0007716455275042933	 0 0 0
W 0.7507716459214631	0.7213074826903214	-0.026948101549496895	 0 0 0
W 0.27694813900867227	0.22130749874265024	0.49922834922821113	 0 0 0
W 0.7492283376352338	0.7786925189318735	0.47305186099132773	 0 0 0
W 0.7769481019434556	0.2786925173096786	0.5007716507717889	 0 0 0
W 0.24922834922821116	0.7213074826903214	0.5269481390086722	 0 0 0
W 0.7230518816132412	0.22130749874265024	0.0007716627587249277	 0 0 0
W 0.25077165077178887	0.7786925189318735	0.026948118780717532	 0 0 0
O 0.22036228545646389	0.00745708296160955	-0.021501539696940578	 0 0 0
O 0.7715015176153942	-0.007457082060515771	-0.02963767783354422	 0 0 0
O 0.27963767783354426	0.49254291956167917	0.47849841610123245	 0 0 0
O 0.7284984434657975	0.5074570820605158	0.47036229744339997	 0 0 0
O 0.7796376557519978	0.00745708296160955	0.5215015711626478	 0 0 0
O 0.22849840411429637	-0.007457082060515771	0.5296376898204803	 0 0 0
O 0.7203623053291939	0.49254291956167917	0.021501534452656054	 0 0 0
O 0.2715015591757118	0.5074570820605158	0.029637672589259697	 0 0 0
O 0.5095371015563928	0.21804732564926227	0.4572851297388231	 0 0 0
O 0.5019553524727467	0.7705051766120872	0.5427148719880295	 0 0 0
O -0.009537077582520493	0.28195265187523244	0.9572851627388231	 0 0 0
O -0.001955341234994093	0.7294949156089834	0.042714856795968516	 0 0 0
O 0.49046289844360724	0.21804732564926227	0.042714856795968516	 0 0 0
O 0.49804464752725325	0.7705051766120872	0.9572851627388231	 0 0 0
O 0.009537064097217362	0.28195265187523244	0.5427148719880295	 0 0 0
O 0.001955327749690962	0.7294949156089834	0.4572851297388231	 0 0 0
O 0.7072851448492324	0.27050513087614364	0.7480446554130471	 0 0 0
O 0.2927148534239149	0.7819527208358648	0.25953710155639276	 0 0 0
O 0.7927148888252913	0.22949484664835107	0.2480446962241813	 0 0 0
O 0.20728514573882317	0.7180473713852058	0.7595371094421867	 0 0 0
O 0.2927148534239149	0.27050513087614364	0.7519553730946602	 0 0 0
O 0.7072851448492324	0.7819527208358648	0.24046294714053532	 0 0 0
O 0.20728514573882317	0.22949484664835107	0.25195535247274675	 0 0 0
O 0.7927148888252913	0.7180473713852058	0.7404629190655208	 0 0 0

K_POINTS automatic
6 6 6 0 0 0
