
&CONTROL
    calculation   = 'vc-relax'
    restart_mode  = 'from_scratch'
    prefix        = 'Landau_31'
    pseudo_dir    = '/cluster/scratch/mnoe/QE/pps'
    outdir        = './'
    forc_conv_thr = 1.0d-7
    etot_conv_thr = 1.0d-7

/
&SYSTEM
    ibrav       = 0
    nat         = 32
    ntyp        = 2
    ecutwfc     = 120
    occupations = 'smearing'
    degauss     = 7.35d-4
    tot_charge  = -0.0
/
&ELECTRONS
    conv_thr    = 1.0d-8
    diagonalization = 'david'
/


&IONS
ion_dynamics = 'bfgs'
/

&CELL
cell_dynamics = 'bfgs'
cell_dofree = 'all'
/
CELL_PARAMETERS angstrom
        7.3236460686         0.0000000000         0.0000000000
        0.0000000000         7.7495899200         0.0000000000
        0.0000000000         0.0000000000         7.3236460686

ATOMIC_SPECIES
W 183.84 W_ONCV_LDA-4.0.upf
O 15.9994 O_ONCV_LDA-3.0.upf

ATOMIC_POSITIONS crystal
W 0.23566	0.2787780309197265	0.01354	 0 0 0
W 0.764339967617299	0.7212219690802735	0.986459981	 0 0 0
W 0.264339984	0.22122198510419222	0.513540019	 0 0 0
W 0.735659999617299	0.7787780316612097	0.486460013	 0 0 0
W 0.764339967617299	0.2787780309197265	0.486460013	 0 0 0
W 0.23566	0.7212219690802735	0.513540019	 0 0 0
W 0.735659999617299	0.22122198510419222	0.986459981	 0 0 0
W 0.264339984	0.7787780316612097	0.01354	 0 0 0
O 0.22355	0.007480379405015797	0.00421	 0 0 0
O 0.776449934617299	0.9925196220926891	0.995789995	 0 0 0
O 0.276449983	0.4925196228341724	0.504210005	 0 0 0
O 0.723550032617299	0.5074803779073109	0.495789995	 0 0 0
O 0.776449934617299	0.007480379405015797	0.495789995	 0 0 0
O 0.22355	0.9925196220926891	0.504210005	 0 0 0
O 0.723550032617299	0.4925196228341724	0.995789995	 0 0 0
O 0.276449983	0.5074803779073109	0.00421	 0 0 0
O 0.503920029	0.222870006	0.45707603213682735	 0 0 0
O 0.496079971	0.7771299943587823	0.5429239686524935	 0 0 0
O 0.996080003	0.277130009	0.9570760651368274	 0 0 0
O 0.003920078	0.7228700063587823	0.04292395519344583	 0 0 0
O 0.496079971	0.222870006	0.04292395519344583	 0 0 0
O 0.503920029	0.7771299943587823	0.9570760651368274	 0 0 0
O 0.003920078	0.277130009	0.5429239686524935	 0 0 0
O 0.996080003	0.7228700063587823	0.45707603213682735	 0 0 0
O 0.7070760477302076	0.244080001	0.744059955617299	 0 0 0
O 0.29292395148047157	0.7559200303587822	0.255940012	 0 0 0
O 0.7929239850351945	0.255919999	0.244060037	 0 0 0
O 0.20707604813682737	0.7440800313587822	0.7559400116172991	 0 0 0
O 0.29292395148047157	0.244080001	0.7559400116172991	 0 0 0
O 0.7070760477302076	0.7559200303587822	0.244060037	 0 0 0
O 0.20707604813682737	0.255919999	0.255940012	 0 0 0
O 0.7929239850351945	0.7440800313587822	0.744059955617299	 0 0 0

K_POINTS automatic
6 6 6 0 0 0
