&CONTROL
    calculation   = 'scf'
    restart_mode  = 'from_scratch'
    prefix        = 'Landau_6'
    pseudo_dir    = '/cluster/scratch/mnoe/QE/pps'
    outdir        = './'
/
&SYSTEM
    ibrav       = 0
    nat         = 32
    ntyp        = 2
    ecutwfc     = 120
    occupations = 'smearing'
    degauss     = 7.35d-4
    tot_charge  = -0.6
/
&ELECTRONS
    conv_thr    = 1.0d-8
    diagonalization = 'david'
/

CELL_PARAMETERS angstrom
   7.398349272   0.000000000   0.000000000
   0.000000000   7.686458226   0.000000000
   0.000000000   0.000000000   7.400869976

ATOMIC_SPECIES
W 183.84 W_ONCV_LDA-4.0.upf
O 15.9994 O_ONCV_LDA-3.0.upf

ATOMIC_POSITIONS crystal
W 0.24584221215955251	0.2771475053049491	0.00392630041785976	
W 0.7541577589697646	0.722852494695051	-0.003926295248718132	
W 0.2541577878404475	0.22285251126067668	0.5039263026653127	
W 0.7458421909302094	0.7771475228393493	0.49607369733468737	
W 0.7541577589697646	0.2771475053049491	0.49607369733468737	
W 0.24584221215955251	0.722852494695051	0.5039263026653127	
W 0.7458421909302094	0.22285251126067668	-0.003926295248718132	
W 0.2541577878404475	0.7771475228393493	0.00392630041785976	
O 0.2423294403759073	0.0070361758719666	0.0012203669174935075	
O 0.7576705235615605	-0.007036185750108711	-0.001220368490710519	
O 0.2576705560281681	0.4929638317842916	0.501220361074116	
O 0.7423294263384134	0.5070361857501087	0.49877963150928945	
O 0.7576705235615605	0.0070361758719666	0.49877963150928945	
O 0.2423294403759073	-0.007036185750108711	0.501220361074116	
O 0.7423294263384134	0.4929638317842916	-0.001220368490710519	
O 0.2576705560281681	0.5070361857501087	0.0012203669174935075	
O 0.5011372129586469	0.24213166766830924	0.46106298808280416	
O 0.4988627870413531	0.7578683441872573	0.5389370305828477	
O -0.0011372203752413968	0.2578683255893321	0.9610630210828042	
O 0.0011372017213824334	0.7421316862662345	0.03893698407967296	
O 0.4988627870413531	0.24213166766830924	0.03893698407967296	
O 0.5011372129586469	0.7578683441872573	0.9610630210828042	
O 0.0011372017213824334	0.2578683255893321	0.5389370305828477	
O -0.0011372203752413968	0.7421316862662345	0.46106298808280416	
O 0.7110629944671654	0.2482829464440301	0.7482761817323004	
O 0.2889369868671827	0.7517170723786404	0.2517237932176866	
O 0.7889370556328607	0.2517170535559699	0.24827622139075714	
O 0.2110630040828042	0.7482829582995967	0.7517237681676736	
O 0.2889369868671827	0.2482829464440301	0.7517237681676736	
O 0.7110629944671654	0.7517170723786404	0.24827622139075714	
O 0.2110630040828042	0.2517170535559699	0.2517237932176866	
O 0.7889370556328607	0.7482829582995967	0.7482761817323004	

K_POINTS automatic
6 6 6 0 0 0
