&CONTROL
    calculation   = 'scf'
    restart_mode  = 'from_scratch'
    prefix        = 'Landau_14'
    pseudo_dir    = '/cluster/scratch/mnoe/QE/pps'
    outdir        = './'
/
&SYSTEM
    ibrav       = 0
    nat         = 32
    ntyp        = 2
    ecutwfc     = 120
    occupations = 'smearing'
    degauss     = 7.35d-4
    tot_charge  = -1.0
/
&ELECTRONS
    conv_thr    = 1.0d-8
    diagonalization = 'david'
/

CELL_PARAMETERS angstrom
   7.364615093   0.000000000   0.000000000
   0.000000000   7.588610024   0.000000000
   0.000000000   0.000000000   7.364615093

ATOMIC_SPECIES
W 183.84 W_ONCV_LDA-4.0.upf
O 15.9994 O_ONCV_LDA-3.0.upf

ATOMIC_POSITIONS crystal
W 0.2248209923	0.2804624332669044	-0.0007209873999999977	
W 0.7507209960710011	0.7195375667330955	-0.025178972700000038	
W 0.27517900770000003	0.21953758219740802	0.4992790077	
W 0.7492790051710011	0.7804624166605897	0.47482099229999997	
W 0.7751789813710012	0.2804624332669044	0.5007209923	
W 0.2492790077	0.7195375667330955	0.5251790077	
W 0.7248210198710011	0.21953758219740802	0.0007210034999999611	
W 0.2507209923	0.7804624166605897	0.0251789888	
O 0.222307986	0.007939260557762895	-0.020089974800000014	
O 0.7700899624710011	-0.00793924730832389	-0.027691979699999984	
O 0.27769197970000004	0.49206073608536144	0.4799099839	
O 0.7299100177710012	0.5079392473083238	0.4723079972	
O 0.7776919673710011	0.007939260557762895	0.5200900042	
O 0.22990997270000002	-0.00793924730832389	0.5276919909	
O 0.7223080128710011	0.49206073608536144	0.020089969900000042	
O 0.27008999300000003	0.5079392473083238	0.027691974800000012	
O 0.5089109958	0.2201450021	0.4529573369794903	
O 0.5018269846	0.7691590136646864	0.5470426453428199	
O -0.008910973400000008	0.27985497689999994	0.9529573699794903	
O -0.0018269740999999977	0.7308410549646865	0.047042666019761675	
O 0.4910890042	0.2201450021	0.047042666019761675	
O 0.4981730154	0.7691590136646864	0.9529573699794903	
O 0.008910960800000011	0.27985497689999994	0.5470426453428199	
O 0.0018269615000000008	0.7308410549646865	0.4529573369794903	
O 0.702957362086179	0.26915897969999997	0.7481730310710011	
O 0.29704265559151083	0.7798550325646865	0.2589109958	
O 0.7970426527718187	0.23084099929999996	0.24817306090000002	
O 0.2029573529794903	0.7201450360646865	0.7589110114710012	
O 0.29704265559151083	0.26915897969999997	0.7518270121710011	
O 0.702957362086179	0.7798550325646865	0.24108904970000003	
O 0.2029573529794903	0.23084099929999996	0.2518269846	
O 0.7970426527718187	0.7201450360646865	0.7410890317710012	

K_POINTS automatic
6 6 6 0 0 0
