
&CONTROL
    calculation   = 'vc-relax'
    restart_mode  = 'from_scratch'
    prefix        = 'Landau_20'
    pseudo_dir    = '/cluster/scratch/mnoe/QE/pps'
    outdir        = './'
    forc_conv_thr = 1.0d-7
    etot_conv_thr = 1.0d-7

/
&SYSTEM
    ibrav       = 0
    nat         = 32
    ntyp        = 2
    ecutwfc     = 120
    occupations = 'smearing'
    degauss     = 7.35d-4
    tot_charge  = -0.0
/
&ELECTRONS
    conv_thr    = 1.0d-8
    diagonalization = 'david'
/


&IONS
ion_dynamics = 'bfgs'
/

&CELL
cell_dynamics = 'bfgs'
cell_dofree = 'all'
/
CELL_PARAMETERS angstrom
        7.3236460686         0.0000000000         0.0000000000
        0.0000000000         7.3236460686         0.0000000000
        0.0000000000         0.0000000000         7.7495899200

ATOMIC_SPECIES
W 183.84 W_ONCV_LDA-4.0.upf
O 15.9994 O_ONCV_LDA-3.0.upf

ATOMIC_POSITIONS crystal
W 0.241330005         0.240879996         0.218119991 0 0 0
W 0.758669995         0.759119955         0.218119991 0 0 0
W 0.240879996         0.758669995         0.781880024 0 0 0
W 0.759119955         0.241330005         0.781880024 0 0 0
W 0.258669995         0.740880012         0.281880024 0 0 0
W 0.741330038         0.259119988         0.281880024 0 0 0
W 0.259119988         0.258669995         0.718119976 0 0 0
W 0.740880012         0.741330038         0.718119976 0 0 0
O 0.231520002         0.231609994         0.491670026 0 0 0
O 0.768479982         0.768389990         0.491670026 0 0 0
O 0.231609994         0.768479982         0.508329974 0 0 0
O 0.768389990         0.231520002         0.508329974 0 0 0
O 0.268479998         0.731609978         0.008329987 0 0 0
O 0.731519986         0.268390006         0.008329987 0 0 0
O 0.268390006         0.268479998         0.991670026 0 0 0
O 0.731609978         0.731519986         0.991670026 0 0 0
O 0.199410008         0.497479993         0.265619993 0 0 0
O 0.800589976         0.502519975         0.265619993 0 0 0
O 0.497479993         0.800589976         0.734379976 0 0 0
O 0.502519975         0.199410008         0.734379976 0 0 0
O 0.300589976         0.997480025         0.234380007 0 0 0
O 0.699409992         0.002519995         0.234380007 0 0 0
O 0.002519995         0.300589976         0.765620024 0 0 0
O 0.997480025         0.699409992         0.765620024 0 0 0
O 0.996150004         0.199410008         0.227930000 0 0 0
O 0.003849983         0.800589976         0.227930000 0 0 0
O 0.199410008         0.003849983         0.772070000 0 0 0
O 0.800589976         0.996150004         0.772070000 0 0 0
O 0.503849996         0.699409992         0.272070000 0 0 0
O 0.496150004         0.300589976         0.272070000 0 0 0
O 0.300589976         0.503849996         0.727930000 0 0 0
O 0.699409992         0.496150004         0.727930000 0 0 0

K_POINTS automatic
6 6 6 0 0 0
