
&CONTROL
    calculation   = 'vc-relax'
    restart_mode  = 'from_scratch'
    prefix        = 'Landau_20'
    pseudo_dir    = '/cluster/scratch/mnoe/QE/pps'
    outdir        = './'
    forc_conv_thr = 1.0d-7
    etot_conv_thr = 1.0d-7

/
&SYSTEM
    ibrav       = 0
    nat         = 32
    ntyp        = 2
    ecutwfc     = 120
    occupations = 'smearing'
    degauss     = 7.35d-4
    tot_charge  = -0.0
/
&ELECTRONS
    conv_thr    = 1.0d-8
    diagonalization = 'david'
/


&IONS
ion_dynamics = 'bfgs'
/

&CELL
cell_dynamics = 'bfgs'
cell_dofree = 'all'
/
CELL_PARAMETERS angstrom
        7.3236460686         0.0000000000         0.0000000000
        0.0000000000         7.7495899200         0.0000000000
        0.0000000000         0.0000000000         7.3236460686

ATOMIC_SPECIES
W 183.84 W_ONCV_LDA-4.0.upf
O 15.9994 O_ONCV_LDA-3.0.upf

ATOMIC_POSITIONS crystal
0.267990011	0.281860003	0.250509991	 0 0 0
-0.250509957	0.718139997	-0.7320099730000001	 0 0 0
0.23201000500000002	0.218140012	0.750509989	 0 0 0
0.7505099909999999	0.781859972	0.767989995	 0 0 0
0.732010007	0.281860003	0.749489995	 0 0 0
0.250510005	0.718139997	0.732009989	 0 0 0
-0.23200997300000004	0.218140012	-0.7505099570000001	 0 0 0
0.249490011	0.781859972	0.23201000700000002	 0 0 0
0.26977998500000006	0.00832	0.26433996899999995	 0 0 0
-0.2643399849999999	0.991680023	-0.7302200470000001	 0 0 0
0.23022003100000005	0.491679992	0.7643400010000001	 0 0 0
0.7643399689999999	0.508319977	0.769779969	 0 0 0
0.7302200310000001	0.00832	0.7356599830000001	 0 0 0
0.26434001700000004	0.991680023	0.730220015	 0 0 0
-0.23022004699999998	0.491679992	-0.764339985	 0 0 0
0.23565999900000006	0.508319977	0.23022003100000005	 0 0 0
0.493629973	0.2713199989999999	0.6995400039999999	 0 0 0
0.4986899490000001	0.7363199849999998	0.800459963	 0 0 0
-0.9936300379999999	0.22868001599999999	1.199540037	 0 0 0
0.0013099950000000238	0.763679987	0.300460012	 0 0 0
0.506370027	0.2713199989999999	0.300460012	 0 0 0
0.5013100509999999	0.7363199849999998	1.199540037	 0 0 0
-0.00637000199999997	0.22868001599999999	0.800459963	 0 0 0
-1.001310035	0.763679987	0.6995400039999999	 0 0 0
0.6995400369999999	0.23632002999999996	2.001310051	 0 0 0
0.300459996	0.7286800019999999	0.49362998900000005	 0 0 0
0.800459963	0.263679985	0.5013099860000001	 0 0 0
0.19954001999999996	0.7713199699999999	1.993629973	 0 0 0
0.300459996	0.23632002999999996	0.99868994	 0 0 0
0.699540037	0.7286800019999999	0.5063699620000001	 0 0 0
0.19954002	0.263679985	0.49868996500000007	 0 0 0
0.800459963	0.7713199699999999	1.006370018	 0 0 0

K_POINTS automatic
6 6 6 0 0 0
