
&CONTROL
    calculation   = 'vc-relax'
    restart_mode  = 'from_scratch'
    prefix        = 'Landau_12'
    pseudo_dir    = '/cluster/scratch/mnoe/QE/pps'
    outdir        = './'
    forc_conv_thr = 1.0d-7
    etot_conv_thr = 1.0d-7

/
&SYSTEM
    ibrav       = 0
    nat         = 32
    ntyp        = 2
    ecutwfc     = 120
    occupations = 'smearing'
    degauss     = 7.35d-4
    tot_charge  = -0.0
/
&ELECTRONS
    conv_thr    = 1.0d-8
    diagonalization = 'david'
/


&IONS
ion_dynamics = 'bfgs'
/

&CELL
cell_dynamics = 'bfgs'
cell_dofree = 'all'
/
CELL_PARAMETERS angstrom
        7.3236460686         0.0000000000         0.0000000000
        0.0000000000         7.7495899200         0.0000000000
        0.0000000000         0.0000000000         7.3236460686

ATOMIC_SPECIES
W 183.84 W_ONCV_LDA-4.0.upf
O 15.9994 O_ONCV_LDA-3.0.upf

ATOMIC_POSITIONS crystal
W 0.2397204735299032	0.2725599673404452	0.005774157892072734	 0 0 0
W 0.7563528650565563	0.7274400326595548	-0.009932254955964514	 0 0 0
W 0.26027952647009683	0.2274400507492911	0.5057741604768445	 0 0 0
W 0.743647038656649	0.7725600321222753	0.49006772829920925	 0 0 0
W 0.7602794682685656	0.2725599673404452	0.4942258395231554	 0 0 0
W 0.24364708157431203	0.7274400326595548	0.5099322717007908	 0 0 0
W 0.7397204354446398	0.2274400507492911	-0.00577414755298539	 0 0 0
W 0.25635291842568797	0.7725600321222753	0.009932265295051857	 0 0 0
O 0.23404745584952097	0.005786394480394887	-0.0013946489350586022	 0 0 0
O 0.7647320092796847	-0.005786436364860393	-0.006276499421419042	 0 0 0
O 0.26595253324948476	0.4942136284169697	0.49860533566869175	 0 0 0
O 0.7352678910620792	0.5057864363648604	0.4937234968699952	 0 0 0
O 0.7659524719012748	0.005786394480394887	0.5013946512950677	 0 0 0
O 0.23526791554919507	-0.005786436364860393	0.5062764900937642	 0 0 0
O 0.7340474284404891	0.4942136284169697	0.0013946457883798565	 0 0 0
O 0.26473207354981065	0.5057864363648604	0.006276496274740296	 0 0 0
O 0.5031365664623335	0.23340351782152144	0.47228042103767937	 0 0 0
O 0.4985873608281589	0.7648793348485494	0.5277196479236235	 0 0 0
O -0.0031365739918862855	0.2665964686927124	0.9722804540376794	 0 0 0
O 0.0014126240003541819	0.735120761670341	0.027719508449699923	 0 0 0
O 0.4968634335376665	0.23340351782152144	0.027719508449699923	 0 0 0
O 0.5014126391718411	0.7648793348485494	0.9722804540376794	 0 0 0
O 0.0031365439860566377	0.2665964686927124	0.5277196479236235	 0 0 0
O -0.0014126540061838299	0.735120761670341	0.47228042103767937	 0 0 0
O 0.7222804015121598	0.250500094575946	0.7471207503960894	 0 0 0
O 0.2777195295265373	0.7573689000756492	0.2540165052852567	 0 0 0
O 0.7777196973594067	0.24949990205261244	0.2471208253424469	 0 0 0
O 0.22228043703767936	0.7426311967803854	0.7540164595580592	 0 0 0
O 0.2777195295265373	0.250500094575946	0.7528791600599991	 0 0 0
O 0.7222804015121598	0.7573689000756492	0.24598352393390324	 0 0 0
O 0.22228043703767936	0.24949990205261244	0.2528792038767131	 0 0 0
O 0.7777196973594067	0.7426311967803854	0.7459834508980293	 0 0 0

K_POINTS automatic
6 6 6 0 0 0
