&CONTROL
    calculation   = 'scf'
    restart_mode  = 'from_scratch'
    prefix        = 'Landau_8'
    pseudo_dir    = '/cluster/scratch/mnoe/QE/pps'
    outdir        = './'
/
&SYSTEM
    ibrav       = 0
    nat         = 32
    ntyp        = 2
    ecutwfc     = 120
    occupations = 'smearing'
    degauss     = 7.35d-4
    tot_charge  = -0.6
/
&ELECTRONS
    conv_thr    = 1.0d-8
    diagonalization = 'david'
/

CELL_PARAMETERS angstrom
   7.351559089   0.000000000   0.000000000
   0.000000000   7.680882354   0.000000000
   0.000000000   0.000000000   7.351559089

ATOMIC_SPECIES
W 183.84 W_ONCV_LDA-4.0.upf
O 15.9994 O_ONCV_LDA-3.0.upf

ATOMIC_POSITIONS crystal
W 0.256940007	0.2801628266624044	-0.992699976	
W 0.742699966871971	0.7198371733375956	-0.993060009	
W 0.243059993	0.2198371889080974	-0.49269999200000003	
W 0.757299982871971	0.7801628443479607	-0.49305999300000003	
W 0.743059999871971	0.2801628266624044	-0.5073000240000001	
W 0.257300024	0.7198371733375956	-0.5069400070000001	
W 0.756940013871971	0.2198371889080974	-1.007299992	
W 0.242699992	0.7801628443479607	-1.0069400229999999	
O 0.264779984	0.007862171519280469	-0.985290017	
O 0.735290007871971	0.9921378295001815	-0.985220016	
O 0.23522	0.49213784718573766	-0.48529000099999997	
O 0.764710005871971	0.5078621704998185	-0.48522	
O 0.735220006871971	0.007862171519280469	-0.514710015	
O 0.264710015	0.9921378295001815	-0.514779984	
O 0.764780006871971	0.49213784718573766	-1.014710015	
O 0.235290001	0.5078621704998185	-1.014780016	
O 0.496919984	0.26766003	-0.5463910906384372	
O 0.502020004	0.7375000025575272	-0.4536088745350029	
O 0.00308001	0.23234	-1.046391090638437	
O 0.997979996	0.7625000145575273	-0.9536088933356136	
O 0.503080016	0.26766003	-0.9536088933356136	
O 0.497979996	0.7375000025575272	-1.046391090638437	
O 0.996920017	0.23234	-0.4536088745350029	
O 0.002020001	0.7625000145575273	-0.5463910906384372	
O 0.703608867663032	0.237500009	-0.252020010128029	
O 0.29639108151040816	0.7323400085575272	-0.753080016	
O 0.796391118593026	0.262499975	-0.752020004	
O 0.2036088933615628	0.7676600085575273	-0.253080019128029	
O 0.29639108151040816	0.237500009	-1.247980005128029	
O 0.703608867663032	0.7323400085575272	-0.746919984	
O 0.2036088933615628	0.262499975	-0.747979996	
O 0.796391118593026	0.7676600085575273	-1.2469200261280289	

K_POINTS automatic
6 6 6 0 0 0
