
&CONTROL
    calculation   = 'vc-relax'
    restart_mode  = 'from_scratch'
    prefix        = 'Landau_4'
    pseudo_dir    = '/cluster/scratch/mnoe/QE/pps'
    outdir        = './'
    forc_conv_thr = 1.0d-7
    etot_conv_thr = 1.0d-7

/
&SYSTEM
    ibrav       = 0
    nat         = 32
    ntyp        = 2
    ecutwfc     = 120
    occupations = 'smearing'
    degauss     = 7.35d-4
    tot_charge  = -0.0
/
&ELECTRONS
    conv_thr    = 1.0d-8
    diagonalization = 'david'
/


&IONS
ion_dynamics = 'bfgs'
/

&CELL
cell_dynamics = 'bfgs'
cell_dofree = 'all'
/
CELL_PARAMETERS angstrom
        7.3236460686         0.0000000000         0.0000000000
        0.0000000000         7.7495899200         0.0000000000
        0.0000000000         0.0000000000         7.3236460686

ATOMIC_SPECIES
W 183.84 W_ONCV_LDA-4.0.upf
O 15.9994 O_ONCV_LDA-3.0.upf

ATOMIC_POSITIONS crystal
W 0.2428138295976874	0.2810153401492476	-0.00020577214066781063	 0 0 0
W 0.7502057722457235	0.7189846598507523	-0.0071861604131991715	 0 0 0
W 0.2571861704023126	0.2189846751313734	0.4997942264608563	 0 0 0
W 0.7497942233693957	0.7810153178484996	0.4928138295976874	 0 0 0
W 0.7571861605182548	0.2810153401492476	0.5002057735391436	 0 0 0
W 0.2497942264608563	0.7189846598507523	0.5071861704023126	 0 0 0
W 0.7428138350968643	0.2189846751313734	0.00020577673565997994	 0 0 0
W 0.2502057735391437	0.7810153178484996	0.007186165008191341	 0 0 0
O 0.24209660945505704	0.008089888789762547	-0.0057337439191841545	 0 0 0
O 0.7557337380307718	-0.00808987168280419	-0.007903380755611792	 0 0 0
O 0.2579033807556118	0.4919101060164478	0.494266244293662	 0 0 0
O 0.7442662515908793	0.5080898716828042	0.49209661265157334	 0 0 0
O 0.7579033748671994	0.008089888789762547	0.5057337523100395	 0 0 0
O 0.2442662410971457	-0.00808987168280419	0.5079033839521281	 0 0 0
O 0.7420966147544517	0.4919101060164478	0.005733742520708282	 0 0 0
O 0.25573374911352315	0.5080898716828042	0.00790337935713592	 0 0 0
O 0.5025432270817047	0.24147928683980327	0.4516053708636862	 0 0 0
O 0.5005214273260657	0.7554680360965565	0.5483946053968078	 0 0 0
O -0.0025432206886721316	0.25852070716672865	0.9516054038636862	 0 0 0
O -0.0005214243293317582	0.7445319664957288	0.048394637278924936	 0 0 0
O 0.49745677291829526	0.24147928683980327	0.048394637278924936	 0 0 0
O 0.4994785726739342	0.7554680360965565	0.9516054038636862	 0 0 0
O 0.0025432170925912966	0.25852070716672865	0.5483946053968078	 0 0 0
O 0.0005214207332509232	0.7445319664957288	0.4516053708636862	 0 0 0
O 0.7016053990931287	0.25546803490030495	0.7494785747768126	 0 0 0
O 0.29839462464637734	0.7585207145562306	0.25254322708170474	 0 0 0
O 0.7983946098867444	0.24453195910622694	0.24947858565978168	 0 0 0
O 0.20160538686368618	0.7414792880360549	0.752543229184583	 0 0 0
O 0.29839462464637734	0.25546803490030495	0.7505214328252428	 0 0 0
O 0.7016053990931287	0.7585207145562306	0.24745678590414275	 0 0 0
O 0.20160538686368618	0.24453195910622694	0.2505214273260658	 0 0 0
O 0.7983946098867444	0.7414792880360549	0.7474567784174722	 0 0 0

K_POINTS automatic
6 6 6 0 0 0
