
&CONTROL
    calculation   = 'vc-relax'
    restart_mode  = 'from_scratch'
    prefix        = 'Landau_13'
    pseudo_dir    = '/cluster/scratch/mnoe/QE/pps'
    outdir        = './'
    forc_conv_thr = 1.0d-7
    etot_conv_thr = 1.0d-7

/
&SYSTEM
    ibrav       = 0
    nat         = 32
    ntyp        = 2
    ecutwfc     = 120
    occupations = 'smearing'
    degauss     = 7.35d-4
    tot_charge  = -0.0
/
&ELECTRONS
    conv_thr    = 1.0d-8
    diagonalization = 'david'
/


&IONS
ion_dynamics = 'bfgs'
/

&CELL
cell_dynamics = 'bfgs'
cell_dofree = 'all'
/
CELL_PARAMETERS angstrom
        7.3236460686         0.0000000000         0.0000000000
        0.0000000000         7.7495899200         0.0000000000
        0.0000000000         0.0000000000         7.3236460686

ATOMIC_SPECIES
W 183.84 W_ONCV_LDA-4.0.upf
O 15.9994 O_ONCV_LDA-3.0.upf

ATOMIC_POSITIONS crystal
W 0.24699715322634347	0.27675479716369483	0.0028356614128987145	 0 0 0
W 0.7530028168767697	0.7232452028363052	-0.002835657679629762	 0 0 0
W 0.25300284677365653	0.22324521953239973	0.5028356630360591	 0 0 0
W 0.746997128848202	0.7767548187426284	0.49716433696394086	 0 0 0
W 0.7530028168767697	0.27675479716369483	0.49716433696394086	 0 0 0
W 0.24699715322634347	0.7232452028363052	0.5028356630360591	 0 0 0
W 0.746997128848202	0.22324521953239973	-0.002835657679629762	 0 0 0
W 0.25300284677365653	0.7767548187426284	0.0028356614128987145	 0 0 0
O 0.24446015138259972	0.006929190527963817	0.0008813761070786442	 0 0 0
O 0.7555398135264001	-0.006929203145951105	-0.0008813772432909303	 0 0 0
O 0.25553984602034363	0.49307081843298256	0.5008813718868615	 0 0 0
O 0.7444601321985717	0.5069292031459511	0.49911862275670904	 0 0 0
O 0.7555398135264001	0.006929190527963817	0.49911862275670904	 0 0 0
O 0.24446015138259972	-0.006929203145951105	0.5008813718868615	 0 0 0
O 0.7444601321985717	0.49307081843298256	-0.0008813772432909303	 0 0 0
O 0.25553984602034363	0.5069292031459511	0.0008813761070786442	 0 0 0
O 0.5008213204701338	0.24431731553822333	0.4620232367563712	 0 0 0
O 0.49917867952986616	0.7556826973379368	0.5379767862147516	 0 0 0
O -0.0008213258265632309	0.2556826795922954	0.9620232697563712	 0 0 0
O 0.0008213123543317574	0.7443173332838647	0.03797673175297904	 0 0 0
O 0.49917867952986616	0.24431731553822333	0.03797673175297904	 0 0 0
O 0.5008213204701338	0.7556826973379368	0.9620232697563712	 0 0 0
O 0.0008213123543317574	0.2556826795922954	0.5379767862147516	 0 0 0
O -0.0008213258265632309	0.7443173332838647	0.4620232367563712	 0 0 0
O 0.7120232409227625	0.24875990576513285	0.7487550110941567	 0 0 0
O 0.2879767361061146	0.7512401121428246	0.2512449617683292	 0 0 0
O 0.7879768133522658	0.25124009423486715	0.2487550487822135	 0 0 0
O 0.2120232527563712	0.748759918641293	0.7512449346308151	 0 0 0
O 0.2879767361061146	0.24875990576513285	0.7512449346308151	 0 0 0
O 0.7120232409227625	0.7512401121428246	0.2487550487822135	 0 0 0
O 0.2120232527563712	0.25124009423486715	0.2512449617683292	 0 0 0
O 0.7879768133522658	0.748759918641293	0.7487550110941567	 0 0 0

K_POINTS automatic
6 6 6 0 0 0
