
&CONTROL
    calculation   = 'vc-relax'
    restart_mode  = 'from_scratch'
    prefix        = 'Landau_28'
    pseudo_dir    = '/cluster/scratch/mnoe/QE/pps'
    outdir        = './'
    forc_conv_thr = 1.0d-7
    etot_conv_thr = 1.0d-7

/
&SYSTEM
    ibrav       = 0
    nat         = 32
    ntyp        = 2
    ecutwfc     = 120
    occupations = 'smearing'
    degauss     = 7.35d-4
    tot_charge  = -0.0
/
&ELECTRONS
    conv_thr    = 1.0d-8
    diagonalization = 'david'
/


&IONS
ion_dynamics = 'bfgs'
/

&CELL
cell_dynamics = 'bfgs'
cell_dofree = 'all'
/
CELL_PARAMETERS angstrom
        7.3236460686         0.0000000000         0.0000000000
        0.0000000000         7.7495899200         0.0000000000
        0.0000000000         0.0000000000         7.3236460686

ATOMIC_SPECIES
W 183.84 W_ONCV_LDA-4.0.upf
O 15.9994 O_ONCV_LDA-3.0.upf

ATOMIC_POSITIONS crystal
W 0.237049992	0.28681131149900546	0.01223	 0 0 0
W 0.762949975	0.7131886885009945	0.987770032	 0 0 0
W 0.262950008	0.21318869694006642	0.512229968	 0 0 0
W 0.737050025	0.7868112804990055	0.48777	 0 0 0
W 0.762949975	0.28681131149900546	0.48777	 0 0 0
W 0.237049992	0.7131886885009945	0.512229968	 0 0 0
W 0.737050025	0.21318869694006642	0.987770032	 0 0 0
W 0.262950008	0.7868112804990055	0.01223	 0 0 0
O 0.226109989	0.017689005779865243	0.0038	 0 0 0
O 0.773890011	0.9823110290298054	0.996200004	 0 0 0
O 0.273890011	0.482310984470554	0.503799963	 0 0 0
O 0.726109989	0.5176889980886975	0.496200004	 0 0 0
O 0.773890011	0.017689005779865243	0.496200004	 0 0 0
O 0.226109989	0.9823110290298054	0.503799963	 0 0 0
O 0.726109989	0.482310984470554	0.996200004	 0 0 0
O 0.273890011	0.5176889980886975	0.0038	 0 0 0
O 0.503539971	0.225490008	0.4751320150806786	 0 0 0
O 0.496460029	0.774510053	0.5248679803500098	 0 0 0
O 0.996459996	0.274509992	0.9751320270857087	 0 0 0
O 0.003540039	0.725489978	0.024868020164710535	 0 0 0
O 0.496460029	0.225490008	0.024868020164710535	 0 0 0
O 0.503539971	0.774510053	0.9751320270857087	 0 0 0
O 0.003540039	0.274509992	0.5248679803500098	 0 0 0
O 0.996459996	0.725489978	0.4751320150806786	 0 0 0
O 0.7251320625147204	0.244650006	0.744629961	 0 0 0
O 0.2748680059142914	0.755349979	0.255370022	 0 0 0
O 0.7748679659159681	0.255349994	0.244629978	 0 0 0
O 0.22513203151807382	0.744649991	0.755370039	 0 0 0
O 0.2748680059142914	0.244650006	0.755370039	 0 0 0
O 0.7251320625147204	0.755349979	0.244629978	 0 0 0
O 0.22513203151807382	0.255349994	0.255370022	 0 0 0
O 0.7748679659159681	0.744649991	0.744629961	 0 0 0

K_POINTS automatic
6 6 6 0 0 0
