&CONTROL
    calculation   = 'scf'
    restart_mode  = 'from_scratch'
    prefix        = 'Landau_2'
    pseudo_dir    = '/cluster/scratch/mnoe/QE/pps'
    outdir        = './'
/
&SYSTEM
    ibrav       = 0
    nat         = 32
    ntyp        = 2
    ecutwfc     = 120
    occupations = 'smearing'
    degauss     = 7.35d-4
    tot_charge  = -0.6
/
&ELECTRONS
    conv_thr    = 1.0d-8
    diagonalization = 'david'
/

CELL_PARAMETERS angstrom
   7.330282830   0.000000000   0.000000000
   0.000000000   7.742836882   0.000000000
   0.000000000   0.000000000   7.330865854

ATOMIC_SPECIES
W 183.84 W_ONCV_LDA-4.0.upf
O 15.9994 O_ONCV_LDA-3.0.upf

ATOMIC_POSITIONS crystal
W 0.248150008	0.28146232918319053	0.00175	
W 0.7518500218861031	0.7185376708168094	0.998249987	
W 0.251850008	0.21853768594892803	0.50174998	
W 0.748149973886103	0.7814623022788658	0.49825002	
W 0.7518500218861031	0.28146232918319053	0.49825002	
W 0.248150008	0.7185376708168094	0.50174998	
W 0.748149973886103	0.21853768594892803	0.998249987	
W 0.251850008	0.7814623022788658	0.00175	
O 0.246590008	0.008211661858711715	0.00054	
O 0.753409972886103	0.9917883583667986	0.999459962	
O 0.253409975	0.49178833146247386	0.500540006	
O 0.7465900228861031	0.5082116416332014	0.499460027	
O 0.753409972886103	0.008211661858711715	0.499460027	
O 0.246590008	0.9917883583667986	0.500540006	
O 0.7465900228861031	0.49178833146247386	0.999459962	
O 0.253409975	0.5082116416332014	0.00054	
O 0.500509989	0.246500008	0.45051239472733257	
O 0.499490011	0.7535000099817784	0.5494875766325797	
O 0.999490044	0.253499992	0.9505124277273326	
O 0.000509977	0.7465000249817783	0.049487617573347846	
O 0.499490011	0.246500008	0.049487617573347846	
O 0.500509989	0.7535000099817784	0.9505124277273326	
O 0.000509977	0.253499992	0.5494875766325797	
O 0.999490044	0.7465000249817783	0.45051239472733257	
O 0.7005124254813171	0.249239998	0.7492300498861031	
O 0.29948760315877054	0.7507600349817783	0.250769981	
O 0.7994875787464767	0.250760017	0.249230019	
O 0.20051241072733259	0.7492399999817783	0.750769945886103	
O 0.29948760315877054	0.249239998	0.750769945886103	
O 0.7005124254813171	0.7507600349817783	0.249230019	
O 0.20051241072733259	0.250760017	0.250769981	
O 0.7994875787464767	0.7492399999817783	0.7492300498861031	

K_POINTS automatic
6 6 6 0 0 0
