&CONTROL
    calculation   = 'scf'
    restart_mode  = 'from_scratch'
    prefix        = 'Landau_14'
    pseudo_dir    = '/cluster/scratch/mnoe/QE/pps'
    outdir        = './'
/
&SYSTEM
    ibrav       = 0
    nat         = 32
    ntyp        = 2
    ecutwfc     = 120
    occupations = 'smearing'
    degauss     = 7.35d-4
    tot_charge  = -0.2
/
&ELECTRONS
    conv_thr    = 1.0d-8
    diagonalization = 'david'
/

CELL_PARAMETERS angstrom
   7.410049715   0.000000000   0.000000000
   0.000000000   7.592427549   0.000000000
   0.000000000   0.000000000   7.426450850

ATOMIC_SPECIES
W 183.84 W_ONCV_LDA-4.0.upf
O 15.9994 O_ONCV_LDA-3.0.upf

ATOMIC_POSITIONS crystal
W 0.22992448775554372	0.27636877815111327	0.004683392664107348	
W 0.7558244601258313	0.7236312218488867	-0.01977459263589269	
W 0.2700755122444563	0.2236312386732278	0.5046833927302989	
W 0.7441754908762874	0.7763688037056884	0.48022537733029896	
W 0.7700754670762874	0.27636877815111327	0.495316607269701	
W 0.2441755122444563	0.7236312218488867	0.519774622669701	
W 0.7299244839258312	0.2236312386732278	-0.0046833765641073844	
W 0.25582448775554373	0.7763688037056884	0.019774608735892655	
O 0.22389424808352534	0.006824027500987214	-0.010119625258040891	
O 0.7716762027940672	-0.006824042812150984	-0.017721630158040864	
O 0.27610572725672905	0.49317598274242413	0.4898803430822135	
O 0.728323735971919	0.506824042812151	0.4822783563822135	
O 0.7761056855719191	0.006824027500987214	0.5101196403437238	
O 0.22832372025672903	-0.006824042812150984	0.5177216270437238	
O 0.7238942531940672	0.49317598274242413	0.01011962035804092	
O 0.27167625508352533	0.506824042812151	0.017721625258040892	
O 0.5066703710691349	0.22237686646879534	0.46296712919419847	
O 0.49958635986913497	0.7713908940519786	0.5370328980090588	
O -0.0066703676575148255	0.2776231125312046	0.9629671621941984	
O 0.0004136316424851851	0.7286091975583914	0.037032835724249806	
O 0.493329628930865	0.22237686646879534	0.037032835724249806	
O 0.500413640130865	0.7713908940519786	0.9629671621941984	
O 0.006670336069134987	0.2776231125312046	0.5370328980090588	
O -0.000413663230865024	0.7286091975583914	0.46296712919419847	
O 0.7129671311803992	0.2589315552473064	0.7466948249952392	
O 0.28703284161634335	0.769627615366622	0.25743282112495175	
O 0.7870329271985169	0.2410684325165612	0.24669488622495173	
O 0.21296714519419846	0.7303724765358768	0.7574328053952393	
O 0.28703284161634335	0.2589315552473064	0.7533051504791441	
O 0.7129671311803992	0.769627615366622	0.2425672243750483	
O 0.21296714519419846	0.2410684325165612	0.2533051592750483	
O 0.7870329271985169	0.7303724765358768	0.7425671700791442	

K_POINTS automatic
6 6 6 0 0 0
