# Phonon frequency and phonon lifetime in meV 
# Q-point  Mode   Phonon freq (meV)   Phonon linewidth (meV)
        1     1     -0.38090077E+01      0.0000000000E+00
        1     2     -0.15017657E-02      0.0000000000E+00
        1     3     -0.15017645E-02      0.0000000000E+00
        1     4     -0.52930389E-03      0.0000000000E+00
        1     5      0.67278529E+01      0.0000000000E+00
        1     6      0.67278529E+01      0.0000000000E+00
        1     7      0.16452146E+02      0.0000000000E+00
        1     8      0.30554978E+02      0.0000000000E+00
        1     9      0.30554978E+02      0.0000000000E+00
        1    10      0.30620909E+02      0.0000000000E+00
        1    11      0.32047568E+02      0.0000000000E+00
        1    12      0.32047568E+02      0.0000000000E+00
        1    13      0.38811928E+02      0.0000000000E+00
        1    14      0.38811928E+02      0.0000000000E+00
        1    15      0.39620695E+02      0.0000000000E+00
        1    16      0.45390386E+02      0.0000000000E+00
        1    17      0.45390386E+02      0.0000000000E+00
        1    18      0.56751243E+02      0.0000000000E+00
        1    19      0.75007679E+02      0.0000000000E+00
        1    20      0.76910741E+02      0.0000000000E+00
        1    21      0.76910741E+02      0.0000000000E+00
        1    22      0.96298406E+02      0.0000000000E+00
        1    23      0.96870466E+02      0.0000000000E+00
        1    24      0.12952095E+03      0.0000000000E+00
        2     1     -0.38093370E+01      0.0000000000E+00
        2     2      0.16691957E+00      0.0000000000E+00
        2     3      0.16691957E+00      0.0000000000E+00
        2     4      0.32511317E+00      0.0000000000E+00
        2     5      0.67355088E+01     -0.2214566214E-04
        2     6      0.67355088E+01     -0.2214566214E-04
        2     7      0.16455854E+02     -0.3714037770E-05
        2     8      0.30546610E+02     -0.1909904400E-06
        2     9      0.30546610E+02     -0.1909904400E-06
        2    10      0.30621085E+02     -0.4343888665E-08
        2    11      0.32051145E+02     -0.2769741693E-07
        2    12      0.32051145E+02     -0.2769741693E-07
        2    13      0.38812074E+02     -0.2459062142E-08
        2    14      0.38812074E+02     -0.2459062142E-08
        2    15      0.39625169E+02     -0.1211394277E-07
        2    16      0.45393592E+02     -0.6457000611E-07
        2    17      0.45393592E+02     -0.6457000611E-07
        2    18      0.56751136E+02     -0.7295590517E-10
        2    19      0.75006506E+02     -0.9528455850E-09
        2    20      0.76910196E+02     -0.1502543130E-09
        2    21      0.76910196E+02     -0.1502543130E-09
        2    22      0.96302237E+02     -0.9883671868E-13
        2    23      0.96883342E+02     -0.5817006671E-13
        2    24      0.12952181E+03     -0.3028944338E-18
        3     1     -0.38103247E+01      0.0000000000E+00
        3     2      0.33279148E+00      0.0000000000E+00
        3     3      0.33279148E+00      0.0000000000E+00
        3     4      0.65042730E+00     -0.5031218303E-05
        3     5      0.67584541E+01     -0.1028722339E-03
        3     6      0.67584541E+01     -0.1028722339E-03
        3     7      0.16466976E+02     -0.3544700650E-05
        3     8      0.30521720E+02     -0.8551116519E-06
        3     9      0.30521720E+02     -0.8551116519E-06
        3    10      0.30621611E+02     -0.9847282854E-06
        3    11      0.32061680E+02     -0.6077920290E-06
        3    12      0.32061680E+02     -0.6077920290E-06
        3    13      0.38812511E+02     -0.4030727646E-07
        3    14      0.38812511E+02     -0.4030727646E-07
        3    15      0.39638565E+02     -0.8142726137E-06
        3    16      0.45403194E+02     -0.3211928782E-06
        3    17      0.45403194E+02     -0.3211928782E-06
        3    18      0.56750816E+02     -0.1676852352E-08
        3    19      0.75002988E+02     -0.3951482335E-08
        3    20      0.76908562E+02     -0.6647415576E-09
        3    21      0.76908562E+02     -0.6647415576E-09
        3    22      0.96313794E+02     -0.2802750773E-11
        3    23      0.96921859E+02     -0.3588959431E-11
        3    24      0.12952440E+03     -0.1565520844E-17
        4     1     -0.38119700E+01      0.0000000000E+00
        4     2      0.49657345E+00      0.0000000000E+00
        4     3      0.49657345E+00      0.0000000000E+00
        4     4      0.97613714E+00     -0.9574764613E-05
        4     5      0.67966195E+01     -0.2757213618E-03
        4     6      0.67966195E+01     -0.2757213618E-03
        4     7      0.16485500E+02     -0.3497165595E-05
        4     8      0.30480906E+02     -0.1683683754E-05
        4     9      0.30480906E+02     -0.1683683754E-05
        4    10      0.30622486E+02     -0.4638425715E-05
        4    11      0.32078628E+02     -0.1867393434E-05
        4    12      0.32078628E+02     -0.1867393434E-05
        4    13      0.38813234E+02     -0.1207983136E-06
        4    14      0.38813234E+02     -0.1207983136E-06
        4    15      0.39660798E+02     -0.2890547960E-05
        4    16      0.45419148E+02     -0.5030684140E-06
        4    17      0.45419148E+02     -0.5030684140E-06
        4    18      0.56750284E+02     -0.6113721216E-08
        4    19      0.74997126E+02     -0.9177261041E-08
        4    20      0.76905841E+02     -0.1642973347E-08
        4    21      0.76905841E+02     -0.1642973347E-08
        4    22      0.96333231E+02     -0.8404282137E-11
        4    23      0.96985717E+02     -0.1261776689E-10
        4    24      0.12952871E+03     -0.3465654487E-17
        5     1     -0.38142716E+01      0.0000000000E+00
        5     2      0.65729212E+00     -0.1206261064E-03
        5     3      0.65729212E+00     -0.1206261064E-03
        5     4      0.13024289E+01     -0.1297191762E-04
        5     5      0.68498833E+01     -0.5408377464E-03
        5     6      0.68498833E+01     -0.5408377464E-03
        5     7      0.16511406E+02     -0.4957489800E-05
        5     8      0.30425040E+02     -0.3338757958E-05
        5     9      0.30425040E+02     -0.3338757958E-05
        5    10      0.30623706E+02     -0.1105156046E-04
        5    11      0.32101207E+02     -0.4351120648E-05
        5    12      0.32101207E+02     -0.4351120648E-05
        5    13      0.38814234E+02     -0.2302660027E-06
        5    14      0.38814234E+02     -0.2302660027E-06
        5    15      0.39691731E+02     -0.6711419894E-05
        5    16      0.45441379E+02     -0.8108548374E-06
        5    17      0.45441379E+02     -0.8108548374E-06
        5    18      0.56749539E+02     -0.1866431434E-08
        5    19      0.74988923E+02     -0.1291802804E-07
        5    20      0.76902035E+02     -0.2760672023E-08
        5    21      0.76902035E+02     -0.2760672023E-08
        5    22      0.96360723E+02     -0.9858174554E-11
        5    23      0.97074501E+02     -0.3042471656E-10
        5    24      0.12953475E+03     -0.1268248851E-17
        6     1     -0.38172277E+01      0.0000000000E+00
        6     2      0.81405280E+00     -0.1712725152E-03
        6     3      0.81405280E+00     -0.1712725152E-03
        6     4      0.16294751E+01     -0.1418142791E-04
        6     5      0.69180622E+01     -0.9893605274E-03
        6     6      0.69180622E+01     -0.9893605274E-03
        6     7      0.16544668E+02     -0.5470676255E-05
        6     8      0.30355124E+02     -0.4938063552E-05
        6     9      0.30355124E+02     -0.4938063552E-05
        6    10      0.30625268E+02     -0.2133089265E-04
        6    11      0.32128537E+02     -0.7829271617E-05
        6    12      0.32128537E+02     -0.7829271617E-05
        6    13      0.38815500E+02     -0.3843440898E-06
        6    14      0.38815500E+02     -0.3843440898E-06
        6    15      0.39731172E+02     -0.1277433348E-04
        6    16      0.45469785E+02     -0.9953729377E-06
        6    17      0.45469785E+02     -0.9953729377E-06
        6    18      0.56748583E+02      0.1960662545E-08
        6    19      0.74978384E+02     -0.3093259545E-07
        6    20      0.76897147E+02     -0.4984650189E-08
        6    21      0.76897147E+02     -0.4984650189E-08
        6    22      0.96396399E+02     -0.1616325564E-10
        6    23      0.97187744E+02     -0.5565909789E-10
        6    24      0.12954253E+03      0.2709153216E-18
        7     1     -0.38208359E+01      0.0000000000E+00
        7     2      0.96606285E+00     -0.2227884609E-03
        7     3      0.96606285E+00     -0.2227884609E-03
        7     4      0.19574299E+01     -0.3807763125E-05
        7     5      0.70009015E+01     -0.2167201909E-02
        7     6      0.70009015E+01     -0.2167201909E-02
        7     7      0.16585250E+02     -0.9217830259E-05
        7     8      0.30272178E+02     -0.5576960584E-05
        7     9      0.30272178E+02     -0.5576960584E-05
        7    10      0.30627166E+02     -0.3271235944E-04
        7    11      0.32159751E+02     -0.1177263669E-04
        7    12      0.32159751E+02     -0.1177263669E-04
        7    13      0.38817018E+02     -0.4913753553E-06
        7    14      0.38817018E+02     -0.4913753553E-06
        7    15      0.39778882E+02     -0.2301182308E-04
        7    16      0.45504237E+02     -0.1122368508E-05
        7    17      0.45504237E+02     -0.1122368508E-05
        7    18      0.56747415E+02      0.8639980817E-08
        7    19      0.74965514E+02     -0.8243523256E-07
        7    20      0.76891182E+02     -0.1095601151E-07
        7    21      0.76891182E+02     -0.1095601151E-07
        7    22      0.96440305E+02     -0.5228550748E-11
        7    23      0.97324973E+02     -0.9681577395E-10
        7    24      0.12955204E+03      0.6546577000E-17
        8     1     -0.38250932E+01      0.0000000000E+00
        8     2      0.11126500E+01     -0.2922549147E-03
        8     3      0.11126500E+01     -0.2922549147E-03
        8     4      0.22864265E+01      0.1188281688E-05
        8     5      0.70980655E+01     -0.1202531457E-01
        8     6      0.70980655E+01     -0.1202531457E-01
        8     7      0.16633107E+02     -0.1268255181E-04
        8     8      0.30177156E+02     -0.8356108786E-05
        8     9      0.30177156E+02     -0.8356108786E-05
        8    10      0.30629393E+02     -0.4461614690E-04
        8    11      0.32194076E+02     -0.3283277634E-04
        8    12      0.32194076E+02     -0.3283277634E-04
        8    13      0.38818774E+02     -0.1518568016E-05
        8    14      0.38818774E+02     -0.1518568016E-05
        8    15      0.39834574E+02     -0.3534525076E-04
        8    16      0.45544580E+02     -0.1374783594E-05
        8    17      0.45544580E+02     -0.1374783594E-05
        8    18      0.56746038E+02      0.1400628362E-07
        8    19      0.74950319E+02     -0.1113588565E-06
        8    20      0.76884147E+02     -0.5356487268E-07
        8    21      0.76884147E+02     -0.5356487268E-07
        8    22      0.96492400E+02     -0.5704057411E-11
        8    23      0.97485708E+02     -0.1398482887E-09
        8    24      0.12956331E+03      0.9416020880E-17
        9     1     -0.38299964E+01      0.0000000000E+00
        9     2      0.12532752E+01     -0.4330145316E-03
        9     3      0.12532752E+01     -0.4330145316E-03
        9     4      0.26165730E+01      0.2478907433E-04
        9     5      0.72091294E+01     -0.2134183383E-01
        9     6      0.72091294E+01     -0.2134183383E-01
        9     7      0.16688186E+02      0.1405543260E-04
        9     8      0.30070911E+02     -0.1276275220E-04
        9     9      0.30070911E+02     -0.1276275220E-04
        9    10      0.30631942E+02     -0.4960874306E-04
        9    11      0.32230868E+02     -0.5211814807E-04
        9    12      0.32230868E+02     -0.5211814807E-04
        9    13      0.38820752E+02     -0.2206864104E-05
        9    14      0.38820752E+02     -0.2206864104E-05
        9    15      0.39897918E+02     -0.5176259208E-04
        9    16      0.45590640E+02     -0.1582140714E-05
        9    17      0.45590640E+02     -0.1582140714E-05
        9    18      0.56744452E+02      0.1264496769E-07
        9    19      0.74932807E+02     -0.1397836378E-06
        9    20      0.76876048E+02     -0.9036795361E-07
        9    21      0.76876048E+02     -0.9036795361E-07
        9    22      0.96552563E+02      0.2070192073E-10
        9    23      0.97669460E+02     -0.1950893939E-09
        9    24      0.12957633E+03      0.2932747786E-16
       10     1     -0.38355413E+01      0.0000000000E+00
       10     2      0.13875396E+01     -0.3214130677E-03
       10     3      0.13875396E+01     -0.3214130677E-03
       10     4      0.29479506E+01      0.1095655152E-03
       10     5      0.73335753E+01     -0.2705893535E-01
       10     6      0.73335753E+01     -0.2705893535E-01
       10     7      0.16750425E+02      0.9889182667E-04
       10     8      0.29954182E+02     -0.9829735525E-05
       10     9      0.29954182E+02     -0.9829735525E-05
       10    10      0.30634803E+02      0.7203774851E-04
       10    11      0.32269617E+02     -0.3954142289E-04
       10    12      0.32269617E+02     -0.3954142289E-04
       10    13      0.38822936E+02     -0.4744123673E-06
       10    14      0.38822936E+02     -0.4744123673E-06
       10    15      0.39968547E+02     -0.5389534797E-04
       10    16      0.45642220E+02     -0.1099068680E-05
       10    17      0.45642220E+02     -0.1099068680E-05
       10    18      0.56742659E+02      0.1298540945E-06
       10    19      0.74912988E+02     -0.1635984759E-06
       10    20      0.76866892E+02     -0.1115471425E-06
       10    21      0.76866892E+02     -0.1115471425E-06
       10    22      0.96620616E+02      0.2225830563E-09
       10    23      0.97875714E+02     -0.2076537218E-09
       10    24      0.12959112E+03      0.9079128083E-16
       11     1     -0.38417237E+01      0.0000000000E+00
       11     2      0.15151849E+01     -0.5778475684E-03
       11     3      0.15151849E+01     -0.5778475684E-03
       11     4      0.32806111E+01      0.1436110495E-03
       11     5      0.74707931E+01     -0.3380885249E-01
       11     6      0.74707931E+01     -0.3380885249E-01
       11     7      0.16819751E+02      0.1350466008E-03
       11     8      0.29827602E+02     -0.1102440253E-04
       11     9      0.29827602E+02     -0.1102440253E-04
       11    10      0.30637967E+02      0.1156381114E-03
       11    11      0.32309939E+02     -0.4235559967E-04
       11    12      0.32309939E+02     -0.4235559967E-04
       11    13      0.38825310E+02      0.2507608834E-07
       11    14      0.38825310E+02      0.2507608834E-07
       11    15      0.40046057E+02     -0.6553896978E-04
       11    16      0.45699106E+02     -0.1076397235E-05
       11    17      0.45699106E+02     -0.1076397235E-05
       11    18      0.56740659E+02      0.2000486519E-06
       11    19      0.74890871E+02     -0.1887004085E-06
       11    20      0.76856688E+02     -0.1354348639E-06
       11    21      0.76856688E+02     -0.1354348639E-06
       11    22      0.96696334E+02      0.3041432379E-09
       11    23      0.98103921E+02     -0.2330384284E-09
       11    24      0.12960769E+03      0.1373028266E-15
       12     1     -0.38485383E+01      0.0000000000E+00
       12     2      0.16360872E+01     -0.8045121612E-03
       12     3      0.16360872E+01     -0.8045121612E-03
       12     4      0.36145762E+01      0.2577294771E-03
       12     5      0.76200853E+01     -0.4079031155E-01
       12     6      0.76200853E+01     -0.4079031155E-01
       12     7      0.16896083E+02      0.2742809873E-03
       12     8      0.29691713E+02     -0.6759598438E-05
       12     9      0.29691713E+02     -0.6759598438E-05
       12    10      0.30641422E+02      0.3109080275E-03
       12    11      0.32351556E+02     -0.2877637107E-04
       12    12      0.32351556E+02     -0.2877637107E-04
       12    13      0.38827861E+02      0.2231101975E-05
       12    14      0.38827861E+02      0.2231101975E-05
       12    15      0.40130019E+02     -0.6696602141E-04
       12    16      0.45761071E+02     -0.5677668392E-06
       12    17      0.45761071E+02     -0.5677668392E-06
       12    18      0.56738456E+02      0.4070155584E-06
       12    19      0.74866468E+02     -0.1927196496E-06
       12    20      0.76845447E+02     -0.1573605053E-06
       12    21      0.76845447E+02     -0.1573605053E-06
       12    22      0.96779457E+02      0.6602529131E-09
       12    23      0.98353483E+02     -0.2418658532E-09
       12    24      0.12962604E+03      0.3439068086E-15
       13     1     -0.38559798E+01      0.0000000000E+00
       13     2      0.17502451E+01     -0.1472712497E-02
       13     3      0.17502451E+01     -0.1472712497E-02
       13     4      0.39498359E+01      0.3022135277E-03
       13     5      0.77806778E+01     -0.4868825224E-01
       13     6      0.77806778E+01     -0.4868825224E-01
       13     7      0.16979328E+02      0.3252841484E-03
       13     8      0.29546985E+02     -0.8415880692E-05
       13     9      0.29546985E+02     -0.8415880692E-05
       13    10      0.30645157E+02      0.4112670196E-03
       13    11      0.32394276E+02     -0.2494919719E-04
       13    12      0.32394276E+02     -0.2494919719E-04
       13    13      0.38830576E+02      0.3537592445E-05
       13    14      0.38830576E+02      0.3537592445E-05
       13    15      0.40219976E+02     -0.8069267227E-04
       13    16      0.45827874E+02     -0.5075246838E-06
       13    17      0.45827874E+02     -0.5075246838E-06
       13    18      0.56736050E+02      0.5443228968E-06
       13    19      0.74839793E+02     -0.2116905884E-06
       13    20      0.76833178E+02     -0.1832836975E-06
       13    21      0.76833178E+02     -0.1832836975E-06
       13    22      0.96869699E+02      0.7954626584E-09
       13    23      0.98623760E+02     -0.2614609865E-09
       13    24      0.12964619E+03      0.4698112008E-15
       14     1     -0.38640419E+01      0.0000000000E+00
       14     2      0.18577644E+01     -0.2516924281E-02
       14     3      0.18577644E+01     -0.2516924281E-02
       14     4      0.42863492E+01      0.3467904097E-03
       14     5      0.79517331E+01     -0.5713246924E-01
       14     6      0.79517331E+01     -0.5713246924E-01
       14     7      0.17069387E+02      0.3742374276E-03
       14     8      0.29393827E+02     -0.1191232047E-04
       14     9      0.29393827E+02     -0.1191232047E-04
       14    10      0.30649158E+02      0.5109709949E-03
       14    11      0.32437974E+02     -0.2369481039E-04
       14    12      0.32437974E+02     -0.2369481039E-04
       14    13      0.38833446E+02      0.4995736192E-05
       14    14      0.38833446E+02      0.4995736192E-05
       14    15      0.40315454E+02     -0.1145503684E-03
       14    16      0.45899267E+02     -0.6521297045E-06
       14    17      0.45899267E+02     -0.6521297045E-06
       14    18      0.56733444E+02      0.7029412537E-06
       14    19      0.74810859E+02     -0.2286138776E-06
       14    20      0.76819894E+02     -0.2107154902E-06
       14    21      0.76819894E+02     -0.2107154902E-06
       14    22      0.96966753E+02      0.9165126046E-09
       14    23      0.98914059E+02     -0.3187649150E-09
       14    24      0.12966816E+03      0.6212080592E-15
       15     1     -0.38727181E+01      0.0000000000E+00
       15     2      0.19588387E+01     -0.4210261644E-02
       15     3      0.19588387E+01     -0.4210261644E-02
       15     4      0.46240441E+01      0.4287325369E-03
       15     5      0.81323671E+01     -0.7065848758E-01
       15     6      0.81323671E+01     -0.7065848758E-01
       15     7      0.17166149E+02      0.4292098662E-03
       15     8      0.29232607E+02     -0.1780964005E-04
       15     9      0.29232607E+02     -0.1780964005E-04
       15    10      0.30653411E+02      0.6596543274E-03
       15    11      0.32482574E+02     -0.1951649429E-04
       15    12      0.32482574E+02     -0.1951649429E-04
       15    13      0.38836465E+02      0.6488501044E-05
       15    14      0.38836465E+02      0.6488501044E-05
       15    15      0.40415963E+02     -0.1044365086E-03
       15    16      0.45974993E+02     -0.8118032651E-06
       15    17      0.45974993E+02     -0.8118032651E-06
       15    18      0.56730641E+02      0.9294023580E-06
       15    19      0.74779682E+02     -0.2902459150E-06
       15    20      0.76805608E+02     -0.2563206233E-06
       15    21      0.76805608E+02     -0.2563206233E-06
       15    22      0.97070294E+02      0.1057036055E-08
       15    23      0.99223643E+02     -0.2227541026E-09
       15    24      0.12969195E+03      0.8626348634E-15
       16     1     -0.38820011E+01      0.0000000000E+00
       16     2      0.20537299E+01     -0.6841217902E-02
       16     3      0.20537299E+01     -0.6841217902E-02
       16     4      0.49628187E+01      0.4691721214E-03
       16     5      0.83216654E+01     -0.8913891991E-01
       16     6      0.83216654E+01     -0.8913891991E-01
       16     7      0.17269494E+02      0.4696068657E-03
       16     8      0.29063658E+02     -0.2583525490E-04
       16     9      0.29063658E+02     -0.2583525490E-04
       16    10      0.30657901E+02      0.8075562415E-03
       16    11      0.32528039E+02     -0.3274828301E-04
       16    12      0.32528039E+02     -0.3274828301E-04
       16    13      0.38839629E+02      0.7183611915E-05
       16    14      0.38839629E+02      0.7183611915E-05
       16    15      0.40521004E+02     -0.1289705969E-03
       16    16      0.46054791E+02     -0.1119165511E-05
       16    17      0.46054791E+02     -0.1119165511E-05
       16    18      0.56727641E+02      0.1160126336E-05
       16    19      0.74746280E+02     -0.3630797327E-06
       16    20      0.76790334E+02     -0.3167921914E-06
       16    21      0.76790334E+02     -0.3167921914E-06
       16    22      0.97179982E+02      0.1189365511E-08
       16    23      0.99551726E+02     -0.2326595728E-09
       16    24      0.12971757E+03      0.1095169309E-14
       17     1     -0.38918834E+01      0.0000000000E+00
       17     2      0.21427489E+01     -0.9297734281E-02
       17     3      0.21427489E+01     -0.9297734281E-02
       17     4      0.53025427E+01      0.5497305735E-03
       17     5      0.85187009E+01     -0.9988087928E-01
       17     6      0.85187009E+01     -0.9988087928E-01
       17     7      0.17379296E+02      0.5443161360E-03
       17     8      0.28887288E+02     -0.2475020976E-04
       17     9      0.28887288E+02     -0.2475020976E-04
       17    10      0.30662612E+02      0.1201133218E-02
       17    11      0.32574357E+02      0.3264952417E-04
       17    12      0.32574357E+02      0.3264952417E-04
       17    13      0.38842938E+02      0.1489902160E-04
       17    14      0.38842938E+02      0.1489902160E-04
       17    15      0.40630072E+02     -0.1388706977E-03
       17    16      0.46138398E+02     -0.6720370103E-06
       17    17      0.46138398E+02     -0.6720370103E-06
       17    18      0.56724449E+02      0.1528495919E-05
       17    19      0.74710670E+02     -0.3632977691E-06
       17    20      0.76774085E+02     -0.3457478435E-06
       17    21      0.76774085E+02     -0.3457478435E-06
       17    22      0.97295465E+02      0.1467867531E-08
       17    23      0.99897483E+02     -0.2130623882E-09
       17    24      0.12974503E+03      0.1395885012E-14
       18     1     -0.39023565E+01      0.0000000000E+00
       18     2      0.22262375E+01     -0.1285623095E-01
       18     3      0.22262375E+01     -0.1285623095E-01
       18     4      0.56430588E+01      0.6007478248E-03
       18     5      0.87225481E+01     -0.1153095283E+00
       18     6      0.87225481E+01     -0.1153095283E+00
       18     7      0.17495418E+02      0.5889844961E-03
       18     8      0.28703787E+02     -0.1618691209E-04
       18     9      0.28703787E+02     -0.1618691209E-04
       18    10      0.30667528E+02      0.1445132769E-02
       18    11      0.32621532E+02      0.6048895814E-04
       18    12      0.32621532E+02      0.6048895814E-04
       18    13      0.38846398E+02      0.1971588504E-04
       18    14      0.38846398E+02      0.1971588504E-04
       18    15      0.40742659E+02     -0.2182977463E-03
       18    16      0.46225550E+02      0.5603338696E-06
       18    17      0.46225550E+02      0.5603338696E-06
       18    18      0.56721067E+02      0.1953862364E-05
       18    19      0.74672874E+02     -0.4589471346E-07
       18    20      0.76756878E+02     -0.3777364864E-06
       18    21      0.76756878E+02     -0.3777364864E-06
       18    22      0.97416379E+02      0.1607973242E-08
       18    23      0.10026005E+03     -0.2808995482E-09
       18    24      0.12977435E+03      0.1741566582E-14
       19     1     -0.39134118E+01      0.0000000000E+00
       19     2      0.23045528E+01     -0.1720777473E-01
       19     3      0.23045528E+01     -0.1720777473E-01
       19     4      0.59841855E+01      0.6812270523E-03
       19     5      0.89322966E+01     -0.1367980379E+00
       19     6      0.89322966E+01     -0.1367980379E+00
       19     7      0.17617719E+02      0.6724236973E-03
       19     8      0.28513429E+02     -0.5118843737E-04
       19     9      0.28513429E+02     -0.5118843737E-04
       19    10      0.30672631E+02      0.1792668852E-02
       19    11      0.32669582E+02      0.1481755235E-04
       19    12      0.32669582E+02      0.1481755235E-04
       19    13      0.38850015E+02      0.2381116093E-04
       19    14      0.38850015E+02      0.2381116093E-04
       19    15      0.40858262E+02     -0.2263548483E-03
       19    16      0.46315986E+02      0.9665089563E-06
       19    17      0.46315986E+02      0.9665089563E-06
       19    18      0.56717497E+02      0.2720938755E-05
       19    19      0.74632912E+02     -0.3136458932E-10
       19    20      0.76738730E+02     -0.4150550555E-06
       19    21      0.76738730E+02     -0.4150550555E-06
       19    22      0.97542349E+02      0.1891003642E-08
       19    23      0.10063853E+03     -0.2450310963E-09
       19    24      0.12980554E+03      0.2944997036E-14
       20     1     -0.39250398E+01      0.0000000000E+00
       20     2      0.23780547E+01     -0.2186310938E-01
       20     3      0.23780547E+01     -0.2186310938E-01
       20     4      0.63257191E+01      0.7828158382E-03
       20     5      0.91470612E+01     -0.1490520576E+00
       20     6      0.91470612E+01     -0.1490520576E+00
       20     7      0.17746050E+02      0.6980912555E-03
       20     8      0.28316479E+02     -0.5893067115E-04
       20     9      0.28316479E+02     -0.5893067115E-04
       20    10      0.30677904E+02      0.2117126362E-02
       20    11      0.32718527E+02      0.6936708473E-04
       20    12      0.32718527E+02      0.6936708473E-04
       20    13      0.38853802E+02      0.3098691654E-04
       20    14      0.38853802E+02      0.3098691654E-04
       20    15      0.40976380E+02     -0.2440174845E-03
       20    16      0.46409448E+02      0.1705830665E-05
       20    17      0.46409448E+02      0.1705830665E-05
       20    18      0.56713743E+02      0.3220131795E-05
       20    19      0.74590808E+02      0.7244636528E-07
       20    20      0.76719659E+02     -0.4388116789E-06
       20    21      0.76719659E+02     -0.4388116789E-06
       20    22      0.97672993E+02      0.2274825991E-08
       20    23      0.10103199E+03     -0.2101609404E-09
       20    24      0.12983859E+03      0.3655593014E-14
       21     1     -0.39372306E+01      0.0000000000E+00
       21     2      0.24470954E+01     -0.2854147363E-01
       21     3      0.24470954E+01     -0.2854147363E-01
       21     4      0.66674363E+01      0.8890245921E-03
       21     5      0.93659895E+01     -0.1714745430E+00
       21     6      0.93659895E+01     -0.1714745430E+00
       21     7      0.17880258E+02      0.6903870389E-03
       21     8      0.28113195E+02     -0.7702471038E-04
       21     9      0.28113195E+02     -0.7702471038E-04
       21    10      0.30683326E+02      0.2535519196E-02
       21    11      0.32768392E+02      0.1584158968E-03
       21    12      0.32768392E+02      0.1584158968E-03
       21    13      0.38857775E+02      0.4533199894E-04
       21    14      0.38857775E+02      0.4533199894E-04
       21    15      0.41096525E+02     -0.2619925479E-03
       21    16      0.46505680E+02      0.2672164872E-05
       21    17      0.46505680E+02      0.2672164872E-05
       21    18      0.56709808E+02      0.5323028166E-05
       21    19      0.74546586E+02      0.1199110153E-06
       21    20      0.76699682E+02     -0.5025262260E-06
       21    21      0.76699682E+02     -0.5025262260E-06
       21    22      0.97807923E+02      0.2693480280E-08
       21    23      0.10143947E+03     -0.1712339736E-09
       21    24      0.12987353E+03      0.4473326723E-14
       22     1     -0.39499740E+01      0.0000000000E+00
       22     2      0.25120123E+01     -0.3484539897E-01
       22     3      0.25120123E+01     -0.3484539897E-01
       22     4      0.70090973E+01      0.9540917128E-03
       22     5      0.95882677E+01     -0.1838865084E+00
       22     6      0.95882677E+01     -0.1838865084E+00
       22     7      0.18020184E+02      0.7072395445E-03
       22     8      0.27903826E+02     -0.9885086093E-04
       22     9      0.27903826E+02     -0.9885086093E-04
       22    10      0.30688880E+02      0.3042166191E-02
       22    11      0.32819200E+02      0.2290814986E-03