
&CONTROL
    calculation   = 'vc-relax'
    restart_mode  = 'from_scratch'
    prefix        = 'Landau_19'
    pseudo_dir    = '/cluster/scratch/mnoe/QE/pps'
    outdir        = './'
    forc_conv_thr = 1.0d-7
    etot_conv_thr = 1.0d-7

/
&SYSTEM
    ibrav       = 0
    nat         = 32
    ntyp        = 2
    ecutwfc     = 120
    occupations = 'smearing'
    degauss     = 7.35d-4
    tot_charge  = -0.0
/
&ELECTRONS
    conv_thr    = 1.0d-8
    diagonalization = 'david'
/


&IONS
ion_dynamics = 'bfgs'
/

&CELL
cell_dynamics = 'bfgs'
cell_dofree = 'all'
/
CELL_PARAMETERS angstrom
        7.3236460686         0.0000000000         0.0000000000
        0.0000000000         7.7495899200         0.0000000000
        0.0000000000         0.0000000000         7.3236460686

ATOMIC_SPECIES
W 183.84 W_ONCV_LDA-4.0.upf
O 15.9994 O_ONCV_LDA-3.0.upf

ATOMIC_POSITIONS crystal
W 0.241209991	0.279971052370155	0.0083	 0 0 0
W 0.7587900309589898	0.720028947629845	0.991699991	 0 0 0
W 0.258790009	0.22002896325740814	0.508300009	 0 0 0
W 0.7412099489589897	0.7799710408246124	0.491699991	 0 0 0
W 0.7587900309589898	0.279971052370155	0.491699991	 0 0 0
W 0.241209991	0.720028947629845	0.508300009	 0 0 0
W 0.7412099489589897	0.22002896325740814	0.991699991	 0 0 0
W 0.258790009	0.7799710408246124	0.0083	 0 0 0
O 0.233790002	0.007805393828880649	0.00258	 0 0 0
O 0.7662099879589898	0.9921946159922933	0.997420006	 0 0 0
O 0.266210014	0.4921946044467508	0.502579994	 0 0 0
O 0.7337899919589898	0.5078053840077067	0.497420006	 0 0 0
O 0.7662099879589898	0.007805393828880649	0.497420006	 0 0 0
O 0.233790002	0.9921946159922933	0.502579994	 0 0 0
O 0.7337899919589898	0.4921946044467508	0.997420006	 0 0 0
O 0.266210014	0.5078053840077067	0.00258	 0 0 0
O 0.502399992	0.233369998	0.4541588599548297	 0 0 0
O 0.497600008	0.7666299804134471	0.545841127754754	 0 0 0
O 0.997600041	0.266630002	0.9541588929548297	 0 0 0
O 0.002399921	0.7333700074134472	0.04584113847340228	 0 0 0
O 0.497600008	0.233369998	0.04584113847340228	 0 0 0
O 0.502399992	0.7666299804134471	0.9541588929548297	 0 0 0
O 0.002399921	0.266630002	0.545841127754754	 0 0 0
O 0.997600041	0.7333700074134472	0.4541588599548297	 0 0 0
O 0.7041588822862562	0.246370005	0.7463599739589898	 0 0 0
O 0.29584113000416	0.7536299734134472	0.253639999	 0 0 0
O 0.7958411377957644	0.253629979	0.246360066	 0 0 0
O 0.20415887595482968	0.7463700144134471	0.7536400059589897	 0 0 0
O 0.29584113000416	0.246370005	0.7536400059589897	 0 0 0
O 0.7041588822862562	0.7536299734134472	0.246360066	 0 0 0
O 0.20415887595482968	0.253629979	0.253639999	 0 0 0
O 0.7958411377957644	0.7463700144134471	0.7463599739589898	 0 0 0

K_POINTS automatic
6 6 6 0 0 0
