&CONTROL
    calculation   = 'scf'
    restart_mode  = 'from_scratch'
    prefix        = 'Landau_18'
    pseudo_dir    = '/cluster/scratch/mnoe/QE/pps'
    outdir        = './'
/
&SYSTEM
    ibrav       = 0
    nat         = 32
    ntyp        = 2
    ecutwfc     = 120
    occupations = 'smearing'
    degauss     = 7.35d-4
    tot_charge  = -0.6
/
&ELECTRONS
    conv_thr    = 1.0d-8
    diagonalization = 'david'
/

CELL_PARAMETERS angstrom
   7.500584307   0.000000000   0.000000000
   0.000000000   7.602072505   0.000000000
   0.000000000   0.000000000   7.502174519

ATOMIC_SPECIES
W 183.84 W_ONCV_LDA-4.0.upf
O 15.9994 O_ONCV_LDA-3.0.upf

ATOMIC_POSITIONS crystal
W 0.24584221215955251	0.26772250991484714	0.003926300417859759	
W 0.7541577088697384	0.7322774900851529	-0.003926295248718131	
W 0.2541577878404475	0.23227750978203007	0.5039263026653127	
W 0.7458421408301833	0.767722624518048	0.49607369733468737	
W 0.7541577088697384	0.26772250991484714	0.49607369733468737	
W 0.24584221215955251	0.7322774900851529	0.5039263026653127	
W 0.7458421408301833	0.23227750978203007	-0.003926295248718131	
W 0.2541577878404475	0.767722624518048	0.003926300417859759	
O 0.2423294403759073	0.004468527615899803	0.001220366917493507	
O 0.7576704734615345	-0.004468603250326176	-0.0012203684907105188	
O 0.2576705560281681	0.4955315113528747	0.501220361074116	
O 0.7423293762383874	0.5044686032503262	0.49877963150928945	
O 0.7576704734615345	0.004468527615899803	0.49877963150928945	
O 0.2423294403759073	-0.004468603250326176	0.501220361074116	
O 0.7423293762383874	0.4955315113528747	-0.0012203684907105188	
O 0.2576705560281681	0.5044686032503262	0.001220366917493507	
O 0.5011372129586469	0.24213166766830924	0.48410895624841255	
O 0.4988627870413531	0.7578683911560319	0.515891165748543	
O -0.0011372203752413963	0.2578683255893321	0.9841089892484125	
O 0.001137201721382433	0.742131733235009	0.015890928239018887	
O 0.4988627870413531	0.24213166766830924	0.015890928239018887	
O 0.5011372129586469	0.7578683911560319	0.9841089892484125	
O 0.001137201721382433	0.2578683255893321	0.515891165748543	
O -0.0011372203752413963	0.742131733235009	0.48410895624841255	
O 0.7341089094014961	0.2482829464440301	0.7482761316322742	
O 0.2658909686015481	0.7517171193474149	0.2517237932176866	
O 0.7658912408985821	0.2517170535559699	0.24827622139075714	
O 0.23410897224841257	0.7482830052683712	0.7517237180676475	
O 0.2658909686015481	0.2482829464440301	0.7517237180676475	
O 0.7341089094014961	0.7517171193474149	0.24827622139075714	
O 0.23410897224841257	0.2517170535559699	0.2517237932176866	
O 0.7658912408985821	0.7482830052683712	0.7482761316322742	

K_POINTS automatic
6 6 6 0 0 0
