
&CONTROL
    calculation   = 'vc-relax'
    restart_mode  = 'from_scratch'
    prefix        = 'Landau_11'
    pseudo_dir    = '/cluster/scratch/mnoe/QE/pps'
    outdir        = './'
    forc_conv_thr = 1.0d-7
    etot_conv_thr = 1.0d-7

/
&SYSTEM
    ibrav       = 0
    nat         = 32
    ntyp        = 2
    ecutwfc     = 120
    occupations = 'smearing'
    degauss     = 7.35d-4
    tot_charge  = -0.0
/
&ELECTRONS
    conv_thr    = 1.0d-8
    diagonalization = 'david'
/


&IONS
ion_dynamics = 'bfgs'
/

&CELL
cell_dynamics = 'bfgs'
cell_dofree = 'all'
/
CELL_PARAMETERS angstrom
        7.3236460686         0.0000000000         0.0000000000
        0.0000000000         7.7495899200         0.0000000000
        0.0000000000         0.0000000000         7.3236460686

ATOMIC_SPECIES
W 183.84 W_ONCV_LDA-4.0.upf
O 15.9994 O_ONCV_LDA-3.0.upf

ATOMIC_POSITIONS crystal
W 0.244910008	0.28285553934466	0.0048	 0 0 0
W 0.755089992	0.71714446065534	0.995199951	 0 0 0
W 0.255089992	0.217144474336165	0.504800017	 0 0 0
W 0.744910008	0.78285550834466	0.495200016	 0 0 0
W 0.755089992	0.28285553934466	0.495200016	 0 0 0
W 0.244910008	0.71714446065534	0.504800017	 0 0 0
W 0.744910008	0.217144474336165	0.995199951	 0 0 0
W 0.255089992	0.78285550834466	0.0048	 0 0 0
O 0.240619996	0.010203781987944999	0.00149	 0 0 0
O 0.759379955	0.98979624338657	0.998509979	 0 0 0
O 0.259379988	0.48979620966027504	0.501489988	 0 0 0
O 0.740620045	0.51020376206602	0.498510012	 0 0 0
O 0.759379955	0.010203781987944999	0.498510012	 0 0 0
O 0.240619996	0.98979624338657	0.501489988	 0 0 0
O 0.740620045	0.48979620966027504	0.998509979	 0 0 0
O 0.259379988	0.51020376206602	0.00149	 0 0 0
O 0.501389976	0.240369998	0.4546856694678	 0 0 0
O 0.498610024	0.759629986	0.545314303248625	 0 0 0
O 0.998609991	0.259629986	0.95468569824644	 0 0 0
O 0.00138998	0.740370045	0.04531435040178	 0 0 0
O 0.498610024	0.240369998	0.04531435040178	 0 0 0
O 0.501389976	0.759629986	0.95468569824644	 0 0 0
O 0.00138998	0.259629986	0.545314303248625	 0 0 0
O 0.998609991	0.740370045	0.4546856694678	 0 0 0
O 0.704685705369985	0.247899992	0.747889984	 0 0 0
O 0.29531433475356	0.752099962	0.25211	 0 0 0
O 0.79531430034644	0.252099992	0.24789	 0 0 0
O 0.204685685555745	0.747900008	0.752110016	 0 0 0
O 0.29531433475356	0.247899992	0.752110016	 0 0 0
O 0.704685705369985	0.752099962	0.24789	 0 0 0
O 0.204685685555745	0.252099992	0.25211	 0 0 0
O 0.79531430034644	0.747900008	0.747889984	 0 0 0

K_POINTS automatic
6 6 6 0 0 0
