
&CONTROL
    calculation   = 'vc-relax'
    restart_mode  = 'from_scratch'
    prefix        = 'Landau_11'
    pseudo_dir    = '/cluster/scratch/mnoe/QE/pps'
    outdir        = './'
    forc_conv_thr = 1.0d-7
    etot_conv_thr = 1.0d-7

/
&SYSTEM
    ibrav       = 0
    nat         = 32
    ntyp        = 2
    ecutwfc     = 120
    occupations = 'smearing'
    degauss     = 7.35d-4
    tot_charge  = -0.0
/
&ELECTRONS
    conv_thr    = 1.0d-8
    diagonalization = 'david'
/


&IONS
ion_dynamics = 'bfgs'
/

&CELL
cell_dynamics = 'bfgs'
cell_dofree = 'all'
/
CELL_PARAMETERS angstrom
        7.3236460686         0.0000000000         0.0000000000
        0.0000000000         7.7495899200         0.0000000000
        0.0000000000         0.0000000000         7.3236460686

ATOMIC_SPECIES
W 183.84 W_ONCV_LDA-4.0.upf
O 15.9994 O_ONCV_LDA-3.0.upf

ATOMIC_POSITIONS crystal
W 0.244910008	0.28076640000377395	0.0048	 0 0 0
W 0.7550899861867836	0.719233599996226	0.995199951	 0 0 0
W 0.255089992	0.21923361535955208	0.504800017	 0 0 0
W 0.7449100021867835	0.7807663802668809	0.495200016	 0 0 0
W 0.7550899861867836	0.28076640000377395	0.495200016	 0 0 0
W 0.244910008	0.719233599996226	0.504800017	 0 0 0
W 0.7449100021867835	0.21923361535955208	0.995199951	 0 0 0
W 0.255089992	0.7807663802668809	0.0048	 0 0 0
O 0.240619996	0.008022070111457218	0.00149	 0 0 0
O 0.7593799491867835	0.9919779452586962	0.998509979	 0 0 0
O 0.259379988	0.4919779255218031	0.501489988	 0 0 0
O 0.7406200391867835	0.5080220547413038	0.498510012	 0 0 0
O 0.7593799491867835	0.008022070111457218	0.498510012	 0 0 0
O 0.240619996	0.9919779452586962	0.501489988	 0 0 0
O 0.7406200391867835	0.4919779255218031	0.998509979	 0 0 0
O 0.259379988	0.5080220547413038	0.00149	 0 0 0
O 0.501389976	0.240369998	0.45221407850016454	 0 0 0
O 0.498610024	0.7596299914498904	0.5477859004895944	 0 0 0
O 0.998609991	0.259629986	0.9522141115001646	 0 0 0
O 0.00138998	0.7403700504498905	0.047785927326706584	 0 0 0
O 0.498610024	0.240369998	0.047785927326706584	 0 0 0
O 0.501389976	0.7596299914498904	0.9522141115001646	 0 0 0
O 0.00138998	0.259629986	0.5477859004895944	 0 0 0
O 0.998609991	0.7403700504498905	0.45221407850016454	 0 0 0
O 0.702214105323622	0.247899992	0.7478899781867835	 0 0 0
O 0.29778591568661894	0.7520999674498904	0.25211	 0 0 0
O 0.797785906302811	0.252099992	0.24789	 0 0 0
O 0.20221409450016456	0.7479000134498904	0.7521100101867836	 0 0 0
O 0.29778591568661894	0.247899992	0.7521100101867836	 0 0 0
O 0.702214105323622	0.7520999674498904	0.24789	 0 0 0
O 0.20221409450016456	0.252099992	0.25211	 0 0 0
O 0.797785906302811	0.7479000134498904	0.7478899781867835	 0 0 0

K_POINTS automatic
6 6 6 0 0 0
