
&CONTROL
    calculation   = 'vc-relax'
    restart_mode  = 'from_scratch'
    prefix        = 'Landau_27'
    pseudo_dir    = '/cluster/scratch/mnoe/QE/pps'
    outdir        = './'
    forc_conv_thr = 1.0d-7
    etot_conv_thr = 1.0d-7

/
&SYSTEM
    ibrav       = 0
    nat         = 32
    ntyp        = 2
    ecutwfc     = 120
    occupations = 'smearing'
    degauss     = 7.35d-4
    tot_charge  = -0.0
/
&ELECTRONS
    conv_thr    = 1.0d-8
    diagonalization = 'david'
/


&IONS
ion_dynamics = 'bfgs'
/

&CELL
cell_dynamics = 'bfgs'
cell_dofree = 'all'
/
CELL_PARAMETERS angstrom
        7.3236460686         0.0000000000         0.0000000000
        0.0000000000         7.7495899200         0.0000000000
        0.0000000000         0.0000000000         7.3236460686

ATOMIC_SPECIES
W 183.84 W_ONCV_LDA-4.0.upf
O 15.9994 O_ONCV_LDA-3.0.upf

ATOMIC_POSITIONS crystal
W 0.237509991	0.27784857900625715	0.01179	 0 0 0
W 0.762490003676653	0.7221514209937429	0.988209993	 0 0 0
W 0.262490009	0.22215143732645198	0.511789974	 0 0 0
W 0.7375099536766531	0.7778485893202419	0.488209993	 0 0 0
W 0.762490003676653	0.27784857900625715	0.488209993	 0 0 0
W 0.237509991	0.7221514209937429	0.511789974	 0 0 0
W 0.7375099536766531	0.22215143732645198	0.988209993	 0 0 0
W 0.262490009	0.7778485893202419	0.01179	 0 0 0
O 0.226970003	0.007227169139552542	0.00367	 0 0 0
O 0.773029991676653	0.9927728258735546	0.996330033	 0 0 0
O 0.273029981	0.4927728361875393	0.503669967	 0 0 0
O 0.7269699656766531	0.5072271741264454	0.49633	 0 0 0
O 0.773029991676653	0.007227169139552542	0.49633	 0 0 0
O 0.226970003	0.9927728258735546	0.503669967	 0 0 0
O 0.7269699656766531	0.4927728361875393	0.996330033	 0 0 0
O 0.273029981	0.5072271741264454	0.00367	 0 0 0
O 0.503409975	0.226370014	0.4593487249417252	 0 0 0
O 0.496590025	0.7736300369906378	0.5406512860376779	 0 0 0
O 0.996590025	0.273629986	0.9593487579417251	 0 0 0
O 0.003409982	0.7263699719906378	0.04065125374241764	 0 0 0
O 0.496590025	0.226370014	0.04065125374241764	 0 0 0
O 0.503409975	0.7736300369906378	0.9593487579417251	 0 0 0
O 0.003409982	0.273629986	0.5406512860376779	 0 0 0
O 0.996590025	0.7263699719906378	0.4593487249417252	 0 0 0
O 0.7093487352856691	0.244840003	0.7448200016766531	 0 0 0
O 0.29065125373492784	0.7551599869906378	0.255179993	 0 0 0
O 0.7906513073610248	0.255159997	0.244820007	 0 0 0
O 0.20934874094172518	0.7448400229906378	0.755179955676653	 0 0 0
O 0.29065125373492784	0.244840003	0.755179955676653	 0 0 0
O 0.7093487352856691	0.7551599869906378	0.244820007	 0 0 0
O 0.20934874094172518	0.255159997	0.255179993	 0 0 0
O 0.7906513073610248	0.7448400229906378	0.7448200016766531	 0 0 0

K_POINTS automatic
6 6 6 0 0 0
