&CONTROL
    calculation   = 'scf'
    restart_mode  = 'from_scratch'
    prefix        = 'Landau_11'
    pseudo_dir    = '/cluster/scratch/mnoe/QE/pps'
    outdir        = './'
/
&SYSTEM
    ibrav       = 0
    nat         = 32
    ntyp        = 2
    ecutwfc     = 120
    occupations = 'smearing'
    degauss     = 7.35d-4
    tot_charge  = -0.2
/
&ELECTRONS
    conv_thr    = 1.0d-8
    diagonalization = 'david'
/

CELL_PARAMETERS angstrom
   7.405534993   0.000000000   0.000000000
   0.000000000   7.642761087   0.000000000
   0.000000000   0.000000000   7.420505830

ATOMIC_SPECIES
W 183.84 W_ONCV_LDA-4.0.upf
O 15.9994 O_ONCV_LDA-3.0.upf

ATOMIC_POSITIONS crystal
W 0.23983001	0.27641239016899116	0.00961	
W 0.7601699290423684	0.7235876098310088	0.990390005	
W 0.26016999	0.2235876266408607	0.509609995	
W 0.7398300130423684	0.7764124152744025	0.490390005	
W 0.7601699290423684	0.27641239016899116	0.490390005	
W 0.23983001	0.7235876098310088	0.509609995	
W 0.7398300130423684	0.2235876266408607	0.990390005	
W 0.26016999	0.7764124152744025	0.00961	
O 0.231229998	0.006835908708034316	0.00299	
O 0.7687699730423684	0.9931640762850741	0.997009996	
O 0.268769986	0.4931641013904855	0.502990004	
O 0.7312299690423684	0.5068359237149259	0.497009996	
O 0.7687699730423684	0.006835908708034316	0.497009996	
O 0.231229998	0.9931640762850741	0.502990004	
O 0.7312299690423684	0.4931641013904855	0.997009996	
O 0.268769986	0.5068359237149259	0.00299	
O 0.502780018	0.230749996	0.4628604892295033	
O 0.497219982	0.7692500461477797	0.5371395374956119	
O 0.997219982	0.269250019	0.9628605222295034	
O 0.002779961	0.7307499771477797	0.03713947609464124	
O 0.497219982	0.230749996	0.03713947609464124	
O 0.502780018	0.7692500461477797	0.9628605222295034	
O 0.002779961	0.269250019	0.5371395374956119	
O 0.997219982	0.7307499771477797	0.4628604892295033	
O 0.7128604914620198	0.2458	0.7457799390423684	
O 0.2871394818128649	0.7542000271477797	0.254220016	
O 0.7871395664532436	0.254199985	0.245779984	
O 0.21286050522950334	0.7458000581477797	0.7542200030423684	
O 0.2871394818128649	0.2458	0.7542200030423684	
O 0.7128604914620198	0.7542000271477797	0.245779984	
O 0.21286050522950334	0.254199985	0.254220016	
O 0.7871395664532436	0.7458000581477797	0.7457799390423684	

K_POINTS automatic
6 6 6 0 0 0
