&CONTROL
    calculation   = 'scf'
    restart_mode  = 'from_scratch'
    prefix        = 'Landau_16'
    pseudo_dir    = '/cluster/scratch/mnoe/QE/pps'
    outdir        = './'
/
&SYSTEM
    ibrav       = 0
    nat         = 32
    ntyp        = 2
    ecutwfc     = 120
    occupations = 'smearing'
    degauss     = 7.35d-4
    tot_charge  = -0.6
/
&ELECTRONS
    conv_thr    = 1.0d-8
    diagonalization = 'david'
/

CELL_PARAMETERS angstrom
   7.375240362   0.000000000   0.000000000
   0.000000000   7.524226016   0.000000000
   0.000000000   0.000000000   7.375240362

ATOMIC_SPECIES
W 183.84 W_ONCV_LDA-4.0.upf
O 15.9994 O_ONCV_LDA-3.0.upf

ATOMIC_POSITIONS crystal
W 0.263880014	0.2784456293248088	-0.9854	
W 0.735399981743942	0.7215543706751912	-0.986120002	
W 0.236120002	0.2215543868161948	-0.4854	
W 0.764599948743942	0.7784456646959212	-0.486120002	
W 0.736119983743942	0.2784456293248088	-0.514599983	
W 0.264599983	0.7215543706751912	-0.5138800139999999	
W 0.763880011743942	0.2215543868161948	-1.014599967	
W 0.2354	0.7784456646959212	-1.0138800300000002	
O 0.27956998	0.007394356038560936	-0.970579953	
O 0.720579934743942	0.9926056330003629	-0.970429988	
O 0.220430004	0.49260566837147535	-0.470580002	
O 0.779419995743942	0.5073943669996371	-0.470430004	
O 0.720429969743942	0.007394356038560936	-0.529420014	
O 0.279420014	0.9926056330003629	-0.52956998	
O 0.779569961743942	0.49260566837147535	-1.029420014	
O 0.220580002	0.5073943669996371	-1.02956998	
O 0.493839968	0.285319969	-0.5421922052768743	
O 0.504040008	0.7250000661150545	-0.45780774107000594	
O 0.006160021	0.214680001	-1.0421922052768744	
O 0.995959992	0.7749999681150544	-0.9578077946712271	
O 0.506160032	0.285319969	-0.9578077946712271	
O 0.495959992	0.7250000661150545	-1.0421922052768744	
O 0.993839968	0.214680001	-0.45780774107000594	
O 0.004040003	0.7749999681150544	-0.5421922052768743	
O 0.707807743326064	0.224999988	-0.25404002125605807	
O 0.2921921870208163	0.7146800181150544	-0.756160032	
O 0.7921922611860521	0.275000012	-0.754040008	
O 0.20780777872312559	0.7853200161150545	-0.25616003925605807	
O 0.2921921870208163	0.224999988	-1.245960010256058	
O 0.707807743326064	0.7146800181150544	-0.7438399680000001	
O 0.20780777872312559	0.275000012	-0.745959992	
O 0.7921922611860521	0.7853200161150545	-1.243839986256058	

K_POINTS automatic
6 6 6 0 0 0
