
&CONTROL
    calculation   = 'vc-relax'
    restart_mode  = 'from_scratch'
    prefix        = 'Landau_16'
    pseudo_dir    = '/cluster/scratch/mnoe/QE/pps'
    outdir        = './'
    forc_conv_thr = 1.0d-7
    etot_conv_thr = 1.0d-7

/
&SYSTEM
    ibrav       = 0
    nat         = 32
    ntyp        = 2
    ecutwfc     = 120
    occupations = 'smearing'
    degauss     = 7.35d-4
    tot_charge  = -0.0
/
&ELECTRONS
    conv_thr    = 1.0d-8
    diagonalization = 'david'
/


&IONS
ion_dynamics = 'bfgs'
/

&CELL
cell_dynamics = 'bfgs'
cell_dofree = 'all'
/
CELL_PARAMETERS angstrom
        7.3236460686         0.0000000000         0.0000000000
        0.0000000000         7.7495899200         0.0000000000
        0.0000000000         0.0000000000         7.3236460686

ATOMIC_SPECIES
W 183.84 W_ONCV_LDA-4.0.upf
O 15.9994 O_ONCV_LDA-3.0.upf

ATOMIC_POSITIONS crystal
W 0.22125531839074963	0.2784813515969905	-0.0008230885626712425	 0 0 0
W 0.750823088982894	0.7215186484030095	-0.028744641652796686	 0 0 0
W 0.2787446816092504	0.2215186645254936	0.4991769058434252	 0 0 0
W 0.7491768934775828	0.7784813553939984	0.4712553183907496	 0 0 0
W 0.7787446420730193	0.2784813515969905	0.5008230941565748	 0 0 0
W 0.24917690584342525	0.7215186484030095	0.5287446816092504	 0 0 0
W 0.7212553403874573	0.2215186645254936	0.0008231069426399198	 0 0 0
W 0.2508230941565748	0.7784813553939984	0.028744660032765365	 0 0 0
O 0.21838643782022815	0.007399555159050187	-0.022934975676736618	 0 0 0
O 0.7729349521230872	-0.007399555731216824	-0.03161352302244717	 0 0 0
O 0.2816135230224472	0.4926004480657911	0.47706497717464796	 0 0 0
O 0.7270650063635173	0.5073995557312169	0.4683864506062933	 0 0 0
O 0.7816134994687977	0.007399555159050187	0.5229350092401577	 0 0 0
O 0.2270649643885828	-0.007399555731216824	0.5316135358085123	 0 0 0
O 0.7183864590178068	0.4926004480657911	0.022934970082833128	 0 0 0
O 0.2729349964540926	0.5073995557312169	0.03161351742854368	 0 0 0
O 0.5101729083268188	0.21591714735921308	0.4578014714547447	 0 0 0
O 0.5020857093042632	0.7718721893862264	0.5421985325872314	 0 0 0
O -0.010172882754688526	0.28408282866691464	0.9578015044547447	 0 0 0
O -0.0020856973173270328	0.7281279109829156	0.04219851311569975	 0 0 0
O 0.48982709167318106	0.21591714735921308	0.04219851311569975	 0 0 0
O 0.4979142906957368	0.7718721893862264	0.9578015044547447	 0 0 0
O 0.010172868370365186	0.28408282866691464	0.5421985325872314	 0 0 0
O 0.0020856829330036927	0.7281279109829156	0.4578014714547447	 0 0 0
O 0.7078014853725146	0.2718721396012199	0.7479142991072503	 0 0 0
O 0.2921985105855092	0.7840829032249225	0.26017290832681894	 0 0 0
O 0.7921985505469774	0.2281278364249078	0.2479143426391267	 0 0 0
O 0.20780148745474472	0.7159171971442195	0.7601729167383324	 0 0 0
O 0.2921985105855092	0.2718721396012199	0.7520857313009709	 0 0 0
O 0.7078014853725146	0.7840829032249225	0.23982714361657098	 0 0 0
O 0.20780148745474472	0.2281278364249078	0.2520857093042632	 0 0 0
O 0.7921985505469774	0.7159171971442195	0.7398271136698888	 0 0 0

K_POINTS automatic
6 6 6 0 0 0
