&CONTROL
    calculation   = 'scf'
    restart_mode  = 'from_scratch'
    prefix        = 'Landau_22'
    pseudo_dir    = '/cluster/scratch/mnoe/QE/pps'
    outdir        = './'
/
&SYSTEM
    ibrav       = 0
    nat         = 16
    ntyp        = 2
    ecutwfc     = 120
    occupations = 'smearing'
    degauss     = 7.35d-4
    tot_charge  = -0.18
/
&ELECTRONS
    conv_thr    = 1.0d-8
    diagonalization = 'david'
/

CELL_PARAMETERS angstrom
5.26700299450275864186 0 0
0 5.26700299450275864186 0
0 0 7.65395034059482759140

ATOMIC_SPECIES
W 183.84 W_ONCV_LDA-4.0.upf
O 15.9994 O_ONCV_LDA-3.0.upf

ATOMIC_POSITIONS crystal
W           0.24999999999994393	0.24999999999990016	0.21065107252043705	
W           0.7500000229999508	0.7500000229999815	0.789348942477436	
W           0.7500000230000163	0.7500000230000425	0.2893489424795617	
W           0.2499999999999337	0.25000000000003153	0.7106510575225641	
O          0.24999999999976197	0.2499999999999246	0.47753575355610134	
O          0.7500000229999935	0.7500000230002838	0.5224642464471684	
O          0.7500000229998872	0.7500000230000167	0.022464259443903165	
O          0.24999999999979633	0.25000000000004735	0.9775357535528242	
O           0.48802906730549056	0.5119708866944459	0.25000000000003686	
O           0.5119709327179923	0.48802911328203424	0.7499999999999988	
O           0.011970915694744219	0.9880291133051343	0.2500000000000036	
O           0.9880290212823288	0.011970949717759222	0.7500000000001796	
O           0.9880291133052762	0.4880290673052435	0.25000000000013817	
O           0.011970949717974876	0.5119709327179713	0.7499999999999782	
O           0.5119708866946188	0.011970915694663187	0.24999999999989572	
O           0.48802911328234405	0.9880290212822863	0.7499999999997757	

K_POINTS automatic
9 9 6 0 0 0
