&CONTROL
    calculation   = 'scf'
    restart_mode  = 'from_scratch'
    prefix        = 'Landau_30'
    pseudo_dir    = '/cluster/scratch/mnoe/QE/pps'
    outdir        = './'
/
&SYSTEM
    ibrav       = 0
    nat         = 32
    ntyp        = 2
    ecutwfc     = 120
    occupations = 'smearing'
    degauss     = 7.35d-4
    tot_charge  = -0.10
/
&ELECTRONS
    conv_thr    = 1.0d-8
    diagonalization = 'david'
/

CELL_PARAMETERS angstrom
   7.345199649   0.000000000   0.000000000
   0.000000000   7.583040789   0.000000000
   0.000000000   0.000000000   7.345199649

ATOMIC_SPECIES
W 183.84 W_ONCV_LDA-4.0.upf
O 15.9994 O_ONCV_LDA-3.0.upf

ATOMIC_POSITIONS crystal
W 0.27696999899999997	0.281860003	0.250770006	
W -0.25076994799999996	0.718139997	-0.7230299360000001	
W 0.22302996799999997	0.218140012	0.75076998	
W 0.750770006	0.781859972	0.776969999	
W 0.723029994	0.281860003	0.749229987	
W 0.25076997999999995	0.718139997	0.723029968	
W -0.22302993599999998	0.218140012	-0.7507699480000001	
W 0.249229987	0.781859972	0.223029994	
O 0.27967001099999994	0.00832	0.2715100180000001	
O -0.2715100410000001	0.991680023	-0.7203300050000001	
O 0.22032997299999996	0.491679992	0.771510009	
O 0.7715100180000001	0.508319977	0.7796700269999999	
O 0.720329982	0.00832	0.728490007	
O 0.27150999299999995	0.991680023	0.7203299889999999	
O -0.220330005	0.491679992	-0.7715100410000002	
O 0.22848999099999995	0.508319977	0.22032998199999998	
O 0.49045993500000007	0.281990006	0.6995400039999999	
O 0.4980400010000001	0.7294699539999999	0.800459963	
O -0.990460033	0.21800999400000004	1.199540037	
O 0.001959913000000012	0.7705299549999999	0.300460012	
O 0.509540065	0.281990006	0.300460012	
O 0.501959999	0.7294699539999999	1.199540037	
O -0.009540020000000062	0.21800999400000004	0.800459963	
O -1.001959966	0.7705299549999999	0.6995400039999999	
O 0.6995400369999999	0.22947000000000006	2.001959999	
O 0.300459996	0.7180099179999999	0.4904599679999999	
O 0.800459963	0.27053000000000005	0.501959901	
O 0.19954001999999996	0.7819899909999999	1.990459935	
O 0.300459996	0.22947000000000006	0.9980399890000001	
O 0.699540037	0.7180099179999999	0.509539967	
O 0.19954002	0.27053000000000005	0.49804003399999996	
O 0.800459963	0.7819899909999999	1.0095400529999998	

K_POINTS automatic
6 6 6 0 0 0
