&CONTROL
    calculation   = 'scf'
    restart_mode  = 'from_scratch'
    prefix        = 'Landau_12'
    pseudo_dir    = '/cluster/scratch/mnoe/QE/pps'
    outdir        = './'
/
&SYSTEM
    ibrav       = 0
    nat         = 32
    ntyp        = 2
    ecutwfc     = 120
    occupations = 'smearing'
    degauss     = 7.35d-4
    tot_charge  = -1.0
/
&ELECTRONS
    conv_thr    = 1.0d-8
    diagonalization = 'david'
/

CELL_PARAMETERS angstrom
   7.413986766   0.000000000   0.000000000
   0.000000000   7.617676765   0.000000000
   0.000000000   0.000000000   7.427264732

ATOMIC_SPECIES
W 183.84 W_ONCV_LDA-4.0.upf
O 15.9994 O_ONCV_LDA-3.0.upf

ATOMIC_POSITIONS crystal
W 0.23366492977958314	0.2759850892068365	0.0049382885736298865	
W 0.7558648982393595	0.7240149107931635	-0.016025698826370144	
W 0.26633507022041686	0.22401492774497694	0.5049382894794033	
W 0.7441350461947968	0.7759851187130555	0.4839742762794033	
W 0.7663350257947967	0.2759850892068365	0.49506171052059667	
W 0.24413507022041686	0.7240149107931635	0.5160257237205966	
W 0.7336649186393596	0.22401492774497694	-0.004938274773629917	
W 0.25586492977958314	0.7759851187130555	0.016025712626370113	
O 0.22789483421238596	0.006719499253718363	-0.006969398148764737	
O 0.7688507891833697	-0.0067195172418021976	-0.013485402348764712	
O 0.2721051462988213	0.4932805122644168	0.4930305763624426	
O 0.731149146260975	0.5067195172418022	0.48651458776244255	
O 0.7721051030609751	0.006719499253718363	0.5069694086321236	
O 0.23114914029882133	-0.0067195172418021976	0.5134853972321236	
O 0.7278948323833697	0.4932805122644168	0.006969393948764762	
O 0.268850840212386	0.5067195172418022	0.013485398148764736	
O 0.5053343957569155	0.22670459585870678	0.46390532415656255	
O 0.4992623861569155	0.7687166224308154	0.5360947072532835	
O -0.005334396078990484	0.2732953861412932	0.9639053571565626	
O 0.0007376033210095231	0.7312834604028737	0.03609463719265896	
O 0.4946656042430845	0.22670459585870678	0.03609463719265896	
O 0.5007376138430845	0.7687166224308154	0.9639053571565626	
O 0.0053343657569155005	0.2732953861412932	0.5360947072532835	
O -0.0007376336430845072	0.7312834604028737	0.46390532415656255	
O 0.7139053239757328	0.2559071019857761	0.7469142710046389	
O 0.2860946446144211	0.7650751549476963	0.2561182755448625	
O 0.7860947384822996	0.2440928890244123	0.2469143313448625	
O 0.21390534015656257	0.7349249281863324	0.756118254204639	
O 0.2860946446144211	0.2559071019857761	0.7530856914091405	
O 0.7139053239757328	0.7650751549476963	0.24388176345513754	
O 0.21390534015656257	0.2440928890244123	0.25308570765513755	
O 0.7860947384822996	0.7349249281863324	0.7438817082091405	

K_POINTS automatic
6 6 6 0 0 0
