
&CONTROL
    calculation   = 'vc-relax'
    restart_mode  = 'from_scratch'
    prefix        = 'Landau_22'
    pseudo_dir    = '/cluster/scratch/mnoe/QE/pps'
    outdir        = './'
    forc_conv_thr = 1.0d-7
    etot_conv_thr = 1.0d-7

/
&SYSTEM
    ibrav       = 0
    nat         = 32
    ntyp        = 2
    ecutwfc     = 120
    occupations = 'smearing'
    degauss     = 7.35d-4
    tot_charge  = -0.0
/
&ELECTRONS
    conv_thr    = 1.0d-8
    diagonalization = 'david'
/


&IONS
ion_dynamics = 'bfgs'
/

&CELL
cell_dynamics = 'bfgs'
cell_dofree = 'all'
/
CELL_PARAMETERS angstrom
        7.3236460686         0.0000000000         0.0000000000
        0.0000000000         7.7495899200         0.0000000000
        0.0000000000         0.0000000000         7.3236460686

ATOMIC_SPECIES
W 183.84 W_ONCV_LDA-4.0.upf
O 15.9994 O_ONCV_LDA-3.0.upf

ATOMIC_POSITIONS crystal
W 0.25	0.27879327748970845	0.0	 0 0 0
W 0.7499999836983445	0.7212067225102915	0.0	 0 0 0
W 0.25	0.221206738529145	0.5	 0 0 0
W 0.7499999836983445	0.778793278074166	0.5	 0 0 0
W 0.7499999836983445	0.27879327748970845	0.5	 0 0 0
W 0.25	0.7212067225102915	0.5	 0 0 0
W 0.7499999836983445	0.221206738529145	0.0	 0 0 0
W 0.25	0.778793278074166	0.0	 0 0 0
O 0.25	0.007484533022837842	0.0	 0 0 0
O 0.7499999836983445	0.9925154685812393	0.0	 0 0 0
O 0.25	0.4925154691656969	0.5	 0 0 0
O 0.7499999836983445	0.5074845314187607	0.5	 0 0 0
O 0.7499999836983445	0.007484533022837842	0.5	 0 0 0
O 0.25	0.9925154685812393	0.5	 0 0 0
O 0.7499999836983445	0.4925154691656969	0.0	 0 0 0
O 0.25	0.5074845314187607	0.0	 0 0 0
O 0.5	0.25	0.4570387512733474	 0 0 0
O 0.5	0.750000000282802	0.5429612493488171	 0 0 0
O 0.0	0.25	0.9570387842733474	 0 0 0
O 0.0	0.750000000282802	0.042961236198755415	 0 0 0
O 0.5	0.25	0.042961236198755415	 0 0 0
O 0.5	0.750000000282802	0.9570387842733474	 0 0 0
O 0.0	0.25	0.5429612493488171	 0 0 0
O 0.0	0.750000000282802	0.4570387512733474	 0 0 0
O 0.7070387669528385	0.25	0.7499999836983445	 0 0 0
O 0.29296123242499705	0.750000000282802	0.25	 0 0 0
O 0.7929612656504725	0.25	0.25	 0 0 0
O 0.20703876727334744	0.750000000282802	0.7499999836983445	 0 0 0
O 0.29296123242499705	0.25	0.7499999836983445	 0 0 0
O 0.7070387669528385	0.750000000282802	0.25	 0 0 0
O 0.20703876727334744	0.25	0.25	 0 0 0
O 0.7929612656504725	0.750000000282802	0.7499999836983445	 0 0 0

K_POINTS automatic
6 6 6 0 0 0
