
&CONTROL
    calculation   = 'vc-relax'
    restart_mode  = 'from_scratch'
    prefix        = 'Landau_4'
    pseudo_dir    = '/cluster/scratch/mnoe/QE/pps'
    outdir        = './'
    forc_conv_thr = 1.0d-7
    etot_conv_thr = 1.0d-7

/
&SYSTEM
    ibrav       = 0
    nat         = 32
    ntyp        = 2
    ecutwfc     = 120
    occupations = 'smearing'
    degauss     = 7.35d-4
    tot_charge  = -0.0
/
&ELECTRONS
    conv_thr    = 1.0d-8
    diagonalization = 'david'
/


&IONS
ion_dynamics = 'bfgs'
/

&CELL
cell_dynamics = 'bfgs'
cell_dofree = 'all'
/
CELL_PARAMETERS angstrom
        7.3236460686         0.0000000000         0.0000000000
        0.0000000000         7.7495899200         0.0000000000
        0.0000000000         0.0000000000         7.3236460686

ATOMIC_SPECIES
W 183.84 W_ONCV_LDA-4.0.upf
O 15.9994 O_ONCV_LDA-3.0.upf

ATOMIC_POSITIONS crystal
W 0.251729988	0.2814507246656011	-0.998180053	 0 0 0
W 0.7481800507179928	0.7185492753343989	-0.998270045	 0 0 0
W 0.248270012	0.21854929047702437	-0.498180004	 0 0 0
W 0.7518199777179928	0.7814507290869902	-0.498270012	 0 0 0
W 0.7482700427179928	0.2814507246656011	-0.501819996	 0 0 0
W 0.251819996	0.7185492753343989	-0.501729988	 0 0 0
W 0.7517299857179928	0.21854929047702437	-1.00181998	 0 0 0
W 0.248180004	0.7814507290869902	-1.0017299880000001	 0 0 0
O 0.253700014	0.008213033129820118	-0.996319977	 0 0 0
O 0.7463199747179927	0.9917869768750454	-0.996299986	 0 0 0
O 0.246300002	0.4917869812964344	-0.49631999299999996	 0 0 0
O 0.7536799887179928	0.5082130231249546	-0.496300002	 0 0 0
O 0.7462999837179928	0.008213033129820118	-0.503679991	 0 0 0
O 0.253679991	0.9917869768750454	-0.503700014	 0 0 0
O 0.7537000447179928	0.4917869812964344	-1.003679991	 0 0 0
O 0.246319993	0.5082130231249546	-1.0037000470000002	 0 0 0
O 0.49923002	0.254410001	-0.5495402546596092	 0 0 0
O 0.500499971	0.7468799841393818	-0.4504597246337507	 0 0 0
O 0.000769973	0.245589999	-1.0495402546596093	 0 0 0
O 0.999500029	0.7531200201393817	-0.9504597173339033	 0 0 0
O 0.50076998	0.254410001	-0.9504597173339033	 0 0 0
O 0.499499997	0.7468799841393818	-1.0495402546596093	 0 0 0
O 0.999230053	0.245589999	-0.4504597246337507	 0 0 0
O 0.000499994	0.7531200201393817	-0.5495402546596092	 0 0 0
O 0.700459710915758	0.246879998	-0.25049999628200725	 0 0 0
O 0.299540252377602	0.7455900011393818	-0.75076998	 0 0 0
O 0.7995402616482565	0.253120002	-0.750499971	 0 0 0
O 0.2004597293403907	0.7544100031393818	-0.25076997528200723	 0 0 0
O 0.299540252377602	0.246879998	-1.2495000312820073	 0 0 0
O 0.700459710915758	0.7455900011393818	-0.7492300199999999	 0 0 0
O 0.2004597293403907	0.253120002	-0.749499997	 0 0 0
O 0.7995402616482565	0.7544100031393818	-1.2492300552820073	 0 0 0

K_POINTS automatic
6 6 6 0 0 0
