W O                                     
   1.00000000000000     
    83.7374719961085248    0.0060653280325205   -0.0201858855799143
     0.0007547095720287   10.4687197993582188   -0.0080336208683894
    -0.0018565573816154   -0.0058913471070202    7.6496628751356903
   W    O 
   128   384
Selective dynamics
Direct
  0.0174971927976505  0.6502524228790142  0.2768437173676276   T   T   T
  0.0190036941515455  0.1514456184002997  0.7766669628926872   T   T   T
  0.0174741548142642  0.6382506850184383  0.7774957716219377   T   T   T
  0.0191422779350459  0.1385750169547202  0.2773372804128127   T   T   T
  0.0484897134304431  0.8914280790075316  0.7195276689065689   T   T   T
  0.0489222188070887  0.4030281355780787  0.2219491199479689   T   T   T
  0.0500500796523183  0.8864894609841828  0.2202114354435012   T   T   T
  0.0504639762181548  0.3999421716961458  0.7219021230187345   T   T   T
  0.0795105883215431  0.1485699355891917  0.2770417846541181   T   T   T
  0.0809790732660171  0.6550970122983417  0.7770628842174316   T   T   T
  0.0803236485657708  0.1370426167184573  0.7781582597180277   T   T   T
  0.0819302872358464  0.6417199931439415  0.2771591473969074   T   T   T
  0.1106936844359730  0.3957358111309514  0.7207257409094232   T   T   T
  0.1116338125492397  0.9066711242375497  0.2222643698639828   T   T   T
  0.1123111937467087  0.3850430692363158  0.2219626222087381   T   T   T
  0.1131797311120780  0.8981802133744974  0.7220728988610765   T   T   T
  0.1418380467509212  0.6488968427089979  0.2769698570993281   T   T   T
  0.1432283126915889  0.1580877276537094  0.7766501811918189   T   T   T
  0.1431897523109280  0.6367145223412778  0.7780411108175485   T   T   T
  0.1447210304573220  0.1445576302374988  0.2763493561246622   T   T   T
  0.1731561311059110  0.8986070518748119  0.7225854159523145   T   T   T
  0.1743643859244318  0.4096170436035828  0.2220993309279289   T   T   T
  0.1749194804105710  0.8854697838123589  0.2238357190849205   T   T   T
  0.1759225062328495  0.3976164390977483  0.7220932813991381   T   T   T
  0.2041770000000014  0.1508380000000002  0.2804599999999979   F   F   F
  0.2056680000000028  0.6595549999999974  0.7729610000000022   F   F   F
  0.2058850000000021  0.1371630000000010  0.7729610000000022   F   F   F
  0.2073759999999965  0.6458799999999982  0.2804599999999979   F   F   F
  0.2352950000000007  0.3998619999999988  0.7195400000000021   F   F   F
  0.2367849999999976  0.9085790000000031  0.2270389999999978   F   F   F
  0.2370030000000014  0.3861869999999996  0.2270389999999978   F   F   F
  0.2384940000000029  0.8949039999999968  0.7195400000000021   F   F   F
  0.2670579999999987  0.6476230000000029  0.2804599999999979   F   F   F
  0.2683910000000012  0.1615060000000028  0.7729610000000022   F   F   F
  0.2687669999999969  0.6339490000000012  0.7729610000000022   F   F   F
  0.2700999999999993  0.1478320000000011  0.2804599999999979   F   F   F
  0.2981759999999980  0.8966479999999990  0.7195400000000021   F   F   F
  0.2995090000000005  0.4105309999999989  0.2270389999999978   F   F   F
  0.2998850000000033  0.8829729999999998  0.2270389999999978   F   F   F
  0.3012179999999987  0.3968559999999997  0.7195400000000021   F   F   F
  0.3292800780405449  0.1502935231115665  0.2776176826001271   T   T   T
  0.3309022895210871  0.6587822803266948  0.7783424663289082   T   T   T
  0.3308211373011923  0.1363611819765925  0.7766238926006575   T   T   T
  0.3325144430615672  0.6454501758658090  0.2774371494297320   T   T   T
  0.3608644095131768  0.3971210064775835  0.7230046190448800   T   T   T
  0.3618405022985017  0.9105052947246166  0.2229728770606517   T   T   T
  0.3624972808713157  0.3864743089660095  0.2224960722184844   T   T   T
  0.3634623043935388  0.8992857070355983  0.7218257245541845   T   T   T
  0.3920407170068099  0.6525595597118106  0.2775468701626819   T   T   T
  0.3937654405766974  0.1585274602091528  0.7789089980577834   T   T   T
  0.3932547285999592  0.6394594514481353  0.7771601779332713   T   T   T
  0.3947178364175578  0.1462482744937566  0.2777234898889417   T   T   T
  0.4236610213633149  0.8958828415569975  0.7230187113643748   T   T   T
  0.4241255944855579  0.4081667240206935  0.2213221221892850   T   T   T
  0.4251440868597407  0.8899682055293342  0.2229394776898592   T   T   T
  0.4257668836617694  0.4025340412610028  0.7207057962343518   T   T   T
  0.4548353395666965  0.1552070470357864  0.2774602669387431   T   T   T
  0.4566108577357164  0.6574080617509961  0.7790056848259123   T   T   T
  0.4553707524830974  0.1430699354182849  0.7769479944469201   T   T   T
  0.4566790510433176  0.6447363576174054  0.2781887658950462   T   T   T
  0.4863641400082946  0.3937890899821099  0.7222811922868373   T   T   T
  0.4862272658605927  0.9049169464576552  0.2202799971410640   T   T   T
  0.4878322920223503  0.3938587377040793  0.2221519626945674   T   T   T
  0.4878407719578304  0.9069666129756516  0.7204894854590894   T   T   T
  0.5172940462031634  0.6465477732046799  0.7776199453274818   T   T   T
  0.5186112411243350  0.1424665452835202  0.2776622090770395   T   T   T
  0.5176578969366928  0.6575760378468924  0.2787728099409784   T   T   T
  0.5193508428959264  0.1560404351991202  0.7775787413752951   T   T   T
  0.5483093614443038  0.4018725809437139  0.2199667829995605   T   T   T
  0.5490140553565491  0.8913062473006618  0.7226771457013520   T   T   T
  0.5498720396947263  0.4106947190076571  0.7210243567669240   T   T   T
  0.5505108267688937  0.8971812099165996  0.2225993589284319   T   T   T
  0.5793081815650906  0.1486153585244277  0.7772948349690513   T   T   T
  0.5807409200920298  0.6397856750592591  0.2775476020038201   T   T   T
  0.5804419532499810  0.1597924829604357  0.2785585566720080   T   T   T
  0.5820199114869393  0.6533696847309790  0.7775759417116868   T   T   T
  0.6105323556477369  0.8994008910163150  0.2211046949324338   T   T   T
  0.6116946349174185  0.3885055202121188  0.7231010769250097   T   T   T
  0.6120606255334958  0.9119876246573926  0.7224835848481681   T   T   T
  0.6132761563049094  0.3988994848657821  0.2231970304955701   T   T   T
  0.6416090999327438  0.6487953203772452  0.7769220657592832   T   T   T
  0.6431201058604838  0.1370922115689217  0.2769674430272693   T   T   T
  0.6432532798025067  0.6609376675393477  0.2780577003096222   T   T   T
  0.6446788301876447  0.1502310448450015  0.7773081576384465   T   T   T
  0.6729329943601372  0.3972535910212512  0.2216543882417525   T   T   T
  0.6744404214545973  0.8858367571431554  0.7227592304749511   T   T   T
  0.6744797042349249  0.4112873009162583  0.7228037331391700   T   T   T
  0.6761592728332609  0.8997708926540954  0.2236157544749126   T   T   T
  0.7041710000000023  0.1478320000000011  0.7729610000000022   F   F   F
  0.7055039999999977  0.6339490000000012  0.2804599999999979   F   F   F
  0.7058800000000005  0.1615060000000028  0.2804599999999979   F   F   F
  0.7072130000000030  0.6476230000000029  0.7729610000000022   F   F   F
  0.7351310000000026  0.8936419999999998  0.2270389999999978   F   F   F
  0.7366219999999970  0.3849239999999980  0.7195400000000021   F   F   F
  0.7368400000000008  0.9073160000000016  0.7195400000000021   F   F   F
  0.7383310000000023  0.3985989999999973  0.2270389999999978   F   F   F
  0.7668940000000006  0.6458799999999982  0.7729610000000022   F   F   F
  0.7683850000000021  0.1371630000000010  0.2804599999999979   F   F   F
  0.7686029999999988  0.6595549999999974  0.2804599999999979   F   F   F
  0.7700940000000003  0.1508380000000002  0.7729610000000022   F   F   F
  0.7980119999999999  0.3968559999999997  0.2270389999999978   F   F   F
  0.7993459999999999  0.8829729999999998  0.7195400000000021   F   F   F
  0.7997209999999981  0.4105309999999989  0.7195400000000021   F   F   F
  0.8010540000000006  0.8966479999999990  0.2270389999999978   F   F   F
  0.8291441755761761  0.1457534896488804  0.7764271014885953   T   T   T
  0.8307957992329816  0.6333561928465190  0.2783753315923154   T   T   T
  0.8307797745259212  0.1592874028331314  0.2766676784195244   T   T   T
  0.8323548166893583  0.6472132542244173  0.7774622498155436   T   T   T
  0.8606416141709884  0.8959001311434930  0.2228107653584909   T   T   T
  0.8619503501684020  0.3833036098508164  0.7230466480285653   T   T   T
  0.8622452649975267  0.9080422949893836  0.7230880763032420   T   T   T
  0.8636239784846963  0.3951027651575206  0.2219671897843550   T   T   T
  0.8919291983540870  0.6430899299670564  0.7766517603065988   T   T   T
  0.8935470123507587  0.1343573067999278  0.2781887856916283   T   T   T
  0.8933306731375809  0.6560569700648980  0.2767716474908553   T   T   T
  0.8948620081085366  0.1467770666679694  0.7768615846692692   T   T   T
  0.9234631682561585  0.3965874555335060  0.2223204660655416   T   T   T
  0.9243201021280353  0.8836493526337025  0.7211407872284865   T   T   T
  0.9250359498576173  0.4054957073935219  0.7228079565969716   T   T   T
  0.9259302115196354  0.8930595918872030  0.2201609908139948   T   T   T
  0.9546813780113308  0.1403495197901536  0.7773245413798264   T   T   T
  0.9563454317410567  0.6360267963951370  0.2778537517767065   T   T   T
  0.9555321675408258  0.1531933664522152  0.2773894208618374   T   T   T
  0.9570794547067262  0.6483477135515837  0.7766291077025549   T   T   T
  0.9862018212970191  0.8994042965522413  0.2213987431885727   T   T   T
  0.9864633622172903  0.3868138760266465  0.7197245498149463   T   T   T
  0.9877816691750984  0.9028971940588917  0.7215258615205958   T   T   T
  0.9879963960562658  0.3896910571117948  0.2193521705970451   T   T   T
  0.9997329577530166  0.5424497374369818  0.2304790447511356   T   T   T
  0.9998216644358604  0.2453291866583223  0.7685914161482664   T   T   T
  0.0000233262978987  0.0421468703745492  0.2624799666427919   T   T   T
  0.9998795069680134  0.7477469614848095  0.7342961519760155   T   T   T
  0.0051477975940067  0.4940263863119784  0.7756540050664024   T   T   T
  0.0051907061411160  0.7939032935646707  0.2737632087932236   T   T   T
  0.0057261124902894  0.2889055013673004  0.2200750272704605   T   T   T
  0.0059525566333355  0.9997030463727676  0.7254231110287458   T   T   T
  0.0180771577153762  0.6659206817075590  0.0074239571290551   T   T   T
  0.0181339172108004  0.1665119212420400  0.5070911766558007   T   T   T
  0.0179451859880089  0.6232708988277194  0.5066036520284537   T   T   T
  0.0190814449094348  0.1231770477337384  0.0062167176926367   T   T   T
  0.0308827260351359  0.7894421537359659  0.7238065153467355   T   T   T
  0.0307341976199631  0.4998699639405713  0.2239794289527256   T   T   T
  0.0314936078186183  0.9944500845598653  0.2780075122019517   T   T   T
  0.0314354387873550  0.2943722159689798  0.7712556596342941   T   T   T
  0.0368617725828170  0.0435112205243131  0.7264969122118022   T   T   T
  0.0367568346649335  0.7453322292233570  0.2641819601555296   T   T   T
  0.0366397472202491  0.5425330722398296  0.7657488341973816   T   T   T
  0.0367642845481100  0.2481373009328920  0.2376408862036199   T   T   T
  0.0465865170342059  0.8966189999379055  0.9909661149440558   T   T   T
  0.0471689829781424  0.4004654480554917  0.4914248166917807   T   T   T
  0.0523475111483279  0.8887678859942320  0.4907426117596915   T   T   T
  0.0519220291380530  0.3941109053084104  0.9914044152515449   T   T   T
  0.0620329519223174  0.0416818698300115  0.2379888655959831   T   T   T
  0.0621438563026002  0.7482288533134686  0.7731258087700069   T   T   T
  0.0623938417759838  0.2482677788986292  0.7301950911456263   T   T   T
  0.0624852197502289  0.5434663440725942  0.2579866850852848   T   T   T
  0.0675446555760398  0.9953716492857045  0.7709820232883280   T   T   T
  0.0675890375778844  0.2942526077080803  0.2763301370486497   T   T   T
  0.0681285197440341  0.7895836158306494  0.2183449527201236   T   T   T
  0.0682938002003386  0.5012637597928612  0.7297018148085253   T   T   T
  0.0799102658938565  0.1645616590427088  0.0082056691298366   T   T   T
  0.0801074475306066  0.6664831932808664  0.5070504363954934   T   T   T
  0.0809758424106141  0.1257457727412591  0.5073227654643534   T   T   T
  0.0818517173456287  0.6263237348338841  0.0064982417749386   T   T   T
  0.0932765730734567  0.2912461898042566  0.7319479646043686   T   T   T
  0.0932244905988632  0.0005851923962432  0.2230676329226721   T   T   T
  0.0939095867134246  0.4957548759412511  0.2780953584064216   T   T   T
  0.0938689280809212  0.7959178406582678  0.7665903416417591   T   T   T
  0.0990702172464625  0.2455704888207637  0.2564936986720227   T   T   T
  0.0991430746689514  0.5457027205439891  0.7245615179673114   T   T   T
  0.0991747636659836  0.0430572777687981  0.7703727612740555   T   T   T
  0.0993289460615632  0.7497110546691366  0.2433889224491474   T   T   T
  0.1095788523975836  0.4023062978275248  0.9918823014682537   T   T   T
  0.1098798695137757  0.9051751880117569  0.4916579546786154   T   T   T
  0.1142258534790800  0.3862295349547523  0.4913480336360845   T   T   T
  0.1142497045860971  0.8914890735579737  0.9916770105952635   T   T   T
  0.1245353307821082  0.5419866846346856  0.2480655664870085   T   T   T
  0.1246063035613424  0.2507993709171940  0.7742214728326735   T   T   T
  0.1250466842152094  0.0456686621178471  0.2529453542371781   T   T   T
  0.1250060511383838  0.7489885753130359  0.7265009672085527   T   T   T
  0.1301159728568023  0.4968609218525831  0.7626185538816388   T   T   T
  0.1301126756238788  0.7957526687394499  0.2769465326299920   T   T   T
  0.1306861781861162  0.2913363940451484  0.2207215409093857   T   T   T
  0.1307313936525033  0.0026609416783577  0.7350074925753793   T   T   T
  0.1417686398896687  0.6616313134980717  0.0083121243660927   T   T   T
  0.1424161016141551  0.1644973713249837  0.5068711716548890   T   T   T
  0.1443140113446248  0.6311163238683145  0.5075114420627894   T   T   T
  0.1446004314559950  0.1316643223828769  0.0066632661556262   T   T   T
  0.1558161060846407  0.7930131909120758  0.7430566715295045   T   T   T
  0.1558825372482520  0.5024057208440739  0.2224828932221759   T   T   T
  0.1564655686498974  0.9974840684158709  0.2744292744817561   T   T   T
  0.1564211580089060  0.2973530068817540  0.7611813022648515   T   T   T
  0.1615662605680889  0.0469046275604509  0.7258785844658578   T   T   T
  0.1615197223295397  0.7476249036358672  0.2466557863990003   T   T   T
  0.1618542408450537  0.5437104537415781  0.7743610436674253   T   T   T
  0.1620212181174167  0.2519136705513023  0.2489733626734661   T   T   T
  0.1732394821061115  0.9072180163224947  0.9927487915972296   T   T   T
  0.1727180141704459  0.4106354432406843  0.4919528081721435   T   T   T
  0.1759400645098176  0.8842178406702319  0.4920414811062169   T   T   T
  0.1766835080698978  0.3888450154155643  0.9918516627294781   T   T   T
  0.1870369999999966  0.0450903999999994  0.2591239999999999   F   F   F
  0.1872630000000015  0.7509760000000014  0.7711159999999992   F   F   F
  0.1876820000000023  0.2495679999999965  0.7213849999999979   F   F   F
  0.1877640000000014  0.5476939999999999  0.2483750000000029   F   F   F
  0.1927499999999966  0.9974171699999985  0.7516249999999971   F   F   F
  0.1927530000000033  0.2981249999999989  0.2786150000000021   F   F   F
  0.1933300000000031  0.7915520000000029  0.2288840000000008   F   F   F
  0.1933980000000020  0.5026030000000006  0.7408760000000001   F   F   F
  0.2040050000000022  0.1602979999999974  0.0075000000000003   F   F   F
  0.2044860000000028  0.6609279999999984  0.5074990000000028   F   F   F
  0.2070679999999996  0.1357900000000001  0.5074990000000028   F   F   F
  0.2075480000000027  0.6364200000000011  0.0075000000000003   F   F   F
  0.2181550000000030  0.2941149999999979  0.7408760000000001   F   F   F
  0.2183020000000013  0.0025828300000015  0.2288840000000008   F   F   F
  0.2188000000000017  0.4985920000000021  0.2786150000000021   F   F   F
  0.2188820000000007  0.7967179999999985  0.7516249999999971   F   F   F
  0.2237889999999965  0.2490239999999986  0.2483750000000029   F   F   F
  0.2238710000000026  0.5471500000000020  0.7213849999999979   F   F   F
  0.2242900000000034  0.0457420999999982  0.7711159999999992   F   F   F
  0.2245160000000013  0.7516269999999992  0.2591239999999999   F   F   F
  0.2351230000000015  0.4093220000000031  0.9925012699999982   F   F   F
  0.2356029999999976  0.9099519999999970  0.4925009999999972   F   F   F
  0.2381859999999989  0.3848139999999987  0.4925009999999972   F   F   F
  0.2386660000000020  0.8854439999999997  0.9925012699999982   F   F   F
  0.2495949999999993  0.5425079999999980  0.2591239999999999   F   F   F
  0.2496629999999982  0.2535590000000028  0.7711159999999992   F   F   F
  0.2501650000000026  0.0502764000000013  0.2483750000000029   F   F   F
  0.2502410000000026  0.7469850000000022  0.7213849999999979   F   F   F
  0.2555529999999990  0.4967860000000002  0.7516249999999971   F   F   F
  0.2556340000000006  0.7949109999999990  0.2786150000000021   F   F   F
  0.2560539999999989  0.2935039999999987  0.2288840000000008   F   F   F
  0.2562009999999972  0.0019717999999997  0.7408760000000001   F   F   F
  0.2668859999999995  0.6570839999999976  0.0075000000000003   F   F   F
  0.2672090000000011  0.1628800000000012  0.5074990000000028   F   F   F
  0.2699489999999969  0.6325760000000002  0.5074990000000028   F   F   F
  0.2702719999999985  0.1383709999999994  0.0075000000000003   F   F   F
  0.2810360000000003  0.7909000000000006  0.7408760000000001   F   F   F
  0.2811039999999991  0.5019509999999983  0.2288840000000008   F   F   F
  0.2816029999999969  0.9979609700000012  0.2786150000000021   F   F   F
  0.2816049999999990  0.2986689999999967  0.7516249999999971   F   F   F
  0.2865940000000009  0.0491012999999967  0.7213849999999979   F   F   F
  0.2866709999999983  0.7458099999999988  0.2483750000000029   F   F   F
  0.2871719999999982  0.5425279999999972  0.7711159999999992   F   F   F
  0.2872399999999971  0.2535790000000020  0.2591239999999999   F   F   F
  0.2980039999999988  0.9061080000000032  0.9925012699999982   F   F   F
  0.2983270000000005  0.4119039999999998  0.4925009999999972   F   F   F
  0.3010670000000033  0.8815999999999988  0.4925009999999972   F   F   F
  0.3013890000000004  0.3873960000000025  0.9925012699999982   F   F   F
  0.3119960000000006  0.0450903999999994  0.2591239999999999   F   F   F
  0.3122219999999984  0.7509760000000014  0.7711159999999992   F   F   F
  0.3126419999999968  0.2495679999999965  0.7213849999999979   F   F   F
  0.3127229999999983  0.5476939999999999  0.2483750000000029   F   F   F
  0.3177090000000007  0.9974171699999985  0.7516249999999971   F   F   F
  0.3177120000000002  0.2981249999999989  0.2786150000000021   F   F   F
  0.3182899999999975  0.7915520000000029  0.2288840000000008   F   F   F
  0.3183580000000035  0.5026030000000006  0.7408760000000001   F   F   F
  0.3288295268985303  0.1601311550999903  0.0068965700750695   T   T   T
  0.3302183030968863  0.6631774817418051  0.5081466686984731   T   T   T
  0.3324923421249414  0.1338266027882987  0.5073357213547327   T   T   T
  0.3321527680991011  0.6343418156406901  0.0089433105849281   T   T   T
  0.3433809528153187  0.2928525049669897  0.7427612101064143   T   T   T
  0.3434423776827466  0.0033682750562721  0.2206832194601331   T   T   T
  0.3440718051387360  0.4980659775108315  0.2752485037743698   T   T   T
  0.3440265752629986  0.7984129868138370  0.7644153819905735   T   T   T
  0.3491558527607105  0.2482690859241239  0.2450477004414583   T   T   T
  0.3491554631303926  0.5464301984735512  0.7283675872551978   T   T   T
  0.3494709366560060  0.0441403106106032  0.7773387051956145   T   T   T
  0.3497522665770265  0.7526042257370449  0.2474852098969502   T   T   T
  0.3604691543903673  0.4061850651825398  0.9919242572418377   T   T   T
  0.3598289941627351  0.9089453322845136  0.4924227601600965   T   T   T
  0.3637470558436368  0.3869300552084140  0.4918897917977761   T   T   T
  0.3646978596176808  0.8931337482777688  0.9930161576022584   T   T   T
  0.3747718556822304  0.5450851858171478  0.2494808748994599   T   T   T
  0.3749885597420842  0.2523215123516705  0.7703592392143952   T   T   T
  0.3751123323081133  0.0498313255156979  0.2583868395574366   T   T   T
  0.3750423587249769  0.7498078798950489  0.7247216081621337   T   T   T
  0.3803252250925134  0.4991758234960260  0.7608227181066463   T   T   T
  0.3803279819089753  0.7997162017298974  0.2789837846712442   T   T   T
  0.3810773714681778  0.2948008454899917  0.2255531222710329   T   T   T
  0.3808491822450208  0.0042889638954279  0.7322313889633953   T   T   T
  0.3919893605703923  0.6661859207481259  0.0072465711452360   T   T   T
  0.3933420584892326  0.1691403860445785  0.5081556217733569   T   T   T
  0.3944247841477432  0.6312153774652915  0.5074656279517059   T   T   T
  0.3941705230310599  0.1307673136451056  0.0089490622861614   T   T   T
  0.4058868871499769  0.7940870557329046  0.7347589935505864   T   T   T
  0.4060557404756951  0.5050714373913288  0.2193512543698893   T   T   T
  0.4066034950407759  0.0004131347433788  0.2760635635508974   T   T   T
  0.4066506271133583  0.2995867096944648  0.7724320007352429   T   T   T
  0.4117631339727839  0.0469170069761220  0.7311783077985762   T   T   T
  0.4117235680909198  0.7507039878308197  0.2538113933812533   T   T   T
  0.4120265686549699  0.5464153268467784  0.7750045504568261   T   T   T
  0.4122409286878544  0.2527940953588221  0.2384895470461205   T   T   T
  0.4225693558750295  0.9028568916634363  0.9921502158262975   T   T   T
  0.4218288875123166  0.4060543553564773  0.4919234347740623   T   T   T
  0.4267338095035578  0.8927475017301708  0.4920501855589842   T   T   T
  0.4276453078042351  0.3979754978993882  0.9921347497483827   T   T   T
  0.4373892520067255  0.0468499881560359  0.2421323807434054   T   T   T
  0.4375425585305513  0.7528035522760604  0.7670177921476106   T   T   T
  0.4373852499040666  0.2513017319907047  0.7261104460848076   T   T   T
  0.4374417079276870  0.5497466664601819  0.2654408404443622   T   T   T
  0.4427983286826494  0.0007798075831978  0.7679134583620920   T   T   T
  0.4427772482815771  0.3008807927869324  0.2792691101936091   T   T   T
  0.4435224269145991  0.7955687478547206  0.2255606906546962   T   T   T
  0.4432923960843347  0.5056517318253833  0.7252649238390866   T   T   T
  0.4548774716021888  0.1709076565408868  0.0068194820611272   T   T   T
  0.4562409825398732  0.6719305565342403  0.5079539179290439   T   T   T
  0.4564116416435717  0.1298844162053621  0.5073823424008018   T   T   T
  0.4561076199157527  0.6292578360339862  0.0086874054518750   T   T   T
  0.4682664099575390  0.2957327495469452  0.7287004561538827   T   T   T
  0.4685312409545953  0.0062744464805557  0.2195325852114583   T   T   T
  0.4690391780172546  0.5014990777130238  0.2745969645186725   T   T   T
  0.4690606514658014  0.8009590434788746  0.7772129335134036   T   T   T
  0.4742040928476590  0.2528293393711832  0.2594936228938232   T   T   T
  0.4742971009125435  0.5477988886624811  0.7345415238405848   T   T   T
  0.4744201791030443  0.0492440093721737  0.7717463675592375   T   T   T
  0.4744752630425386  0.7526205738590485  0.2318040984938536   T   T   T
  0.4848271051508948  0.3998832160135035  0.9915055484802714   T   T   T
  0.4839583366090978  0.9037085428855870  0.4917731612230949   T   T   T
  0.4893776144859243  0.3975716674461512  0.4916052487287368   T   T   T
  0.4901922154223519  0.9019738550909177  0.9917000755132384   T   T   T
  0.4996260844453413  0.7532716585384895  0.7300506980842041   T   T   T
  0.4999104924420298  0.5476645582484623  0.2367640093387757   T   T   T
  0.4999462474957831  0.2528260514508825  0.7621031547249253   T   T   T
  0.4997308515371408  0.0487031347482690  0.2705147111149927   T   T   T
  0.5050996385107346  0.8008556900204815  0.2782801176656643   T   T   T
  0.5051709767990998  0.5019174361825474  0.7726615331011396   T   T   T
  0.5056617497132033  0.0066139983877648  0.7206463486544512   T   T   T
  0.5059135346341558  0.2955112587468484  0.2269382266100488   T   T   T
  0.5183218134768753  0.6298551136454309  0.5085024622569719   T   T   T
  0.5180069926949351  0.1296444818329033  0.0073992084168577   T   T   T
  0.5176902424373605  0.6726197442995409  0.0076200351484267   T   T   T
  0.5190390212019301  0.1718610994898684  0.5071709916428236   T   T   T
  0.5308603786470023  0.5060802646182044  0.2230734156840552   T   T   T
  0.5306456266665582  0.7967104951083710  0.7263710565239989   T   T   T
  0.5313589907449652  0.3018899655109799  0.7786218740129537   T   T   T
  0.5313829265168626  0.0011897464748108  0.2703083326882917   T   T   T
  0.5367105814423124  0.5513265817561709  0.7669431599952418   T   T   T
  0.5367402050711039  0.2514646965503821  0.2272545708606380   T   T   T
  0.5366397219107516  0.7534677070831417  0.2650226623308854   T   T   T
  0.5368041940990843  0.0480223270089472  0.7393676133509064   T   T   T
  0.5463902043521210  0.4005049096903163  0.4918014948964680   T   T   T
  0.5473512915286154  0.8957962869951696  0.9917842662697194   T   T   T
  0.5523625048517046  0.4053667675080533  0.9914719375300396   T   T   T
  0.5517049313316297  0.9018009263350834  0.4918943178715421   T   T   T
  0.5618769407307712  0.2543875001770348  0.7361133388408183   T   T   T
  0.5620616005907493  0.5469558674411746  0.2739028713150133   T   T   T
  0.5624005862784159  0.7517242723110141  0.7566190613527763   T   T   T
  0.5623961505010318  0.0479946387522851  0.2321387445998206   T   T   T
  0.5675020411128029  0.3006547195668826  0.2739131005008889   T   T   T
  0.5675584274042661  0.0018830986806280  0.7749136028123851   T   T   T
  0.5680859482877958  0.5060966483084053  0.7194166463311592   T   T   T
  0.5682495861170818  0.7946626320811839  0.2321839114576865   T   T   T
  0.5801952041998335  0.1316492828130451  0.5085254880990026   T   T   T
  0.5799250179474654  0.6305627323119590  0.0074571845699905   T   T   T
  0.5805909634149410  0.1713680845806783  0.0078629749781225   T   T   T
  0.5818982743780492  0.6682437899257103  0.5072804749189999   T   T   T
  0.5932248058549634  0.0052684808252874  0.2291766957644381   T   T   T
  0.5931427861033249  0.2962176732656964  0.7259141929491919   T   T   T
  0.5937355711958837  0.8008145464600526  0.7788826094127511   T   T   T
  0.5938264951381161  0.4999966535685598  0.2641687057139099   T   T   T
  0.5990386104350960  0.7501932293073471  0.2251711922168558   T   T   T
  0.5989891815122051  0.0514091645253792  0.7604773141398822   T   T   T
  0.5992043462480890  0.2532670791408963  0.2689551673361119   T   T   T
  0.5993712624421722  0.5465519965697464  0.7463048887478410   T   T   T
  0.6091425830005898  0.8960250734267433  0.4924790322423596   T   T   T
  0.6102606828891548  0.3906948083596318  0.9921385061319923   T   T   T
  0.6143548197521299  0.9079890143926128  0.9920481965972161   T   T   T
  0.6139193347810546  0.4050047524012757  0.4921985570702628   T   T   T
  0.6242835548148318  0.7539944451819925  0.7435352316196668   T   T   T
  0.6245441645635095  0.0449405561573064  0.2760090818806940   T   T   T
  0.6249839244062348  0.5477914555320038  0.2296796409886497   T   T   T
  0.6249868209370173  0.2496341676439073  0.7499564936118858   T   T   T
  0.6299987990754087  0.7996983570087476  0.2675329285554399   T   T   T
  0.6301064533012850  0.5004995635274481  0.7744843412490188   T   T   T
  0.6305632134624244  0.0043778545156698  0.7206075374259405   T   T   T
  0.6307607859702535  0.2936292331926679  0.2391746497211258   T   T   T
  0.6422794963079900  0.6346637547952165  0.5084421584918244   T   T   T
  0.6419548550806125  0.1321832408376414  0.0073403149218865   T   T   T
  0.6436256173607948  0.6670836742894493  0.0079839513487438   T   T   T
  0.6448986802362068  0.1624031807102249  0.5071462073797698   T   T   T
  0.6557191287877351  0.5039619779434924  0.2367335988396497   T   T   T
  0.6557615856086658  0.7948190858383871  0.7277956399195877   T   T   T
  0.6563112656993066  0.2983525072227080  0.7776045078529544   T   T   T
  0.6564360785591288  0.9986469257599365  0.2561768266051665   T   T   T
  0.6614273902010731  0.5499966311645658  0.7526050380942446   T   T   T
  0.6614924756509992  0.2487263335066524  0.2234569002061148   T   T   T
  0.6618227865261265  0.7535536920145215  0.2705887847076843   T   T   T
  0.6619349306648944  0.0435507365563773  0.7535885584151431   T   T   T
  0.6721413295931662  0.3897809322392095  0.4925466773599431   T   T   T
  0.6736200736823883  0.8857813593860998  0.9923332426011459   T   T   T
  0.6763580475198077  0.4105963029279633  0.9921523904791956   T   T   T
  0.6760811340572397  0.9077077630723754  0.4919507883875739   T   T   T
  0.6870309999999975  0.2535790000000020  0.7516249999999971   F   F   F
  0.6870990000000035  0.5425279999999972  0.2786150000000021   F   F   F
  0.6876010000000008  0.7458099999999988  0.7408760000000001   F   F   F
  0.6876770000000008  0.0491011000000015  0.2288840000000008   F   F   F
  0.6926660000000027  0.2986689999999967  0.2591239999999999   F   F   F
  0.6926679999999976  0.9979609999999965  0.7711159999999992   F   F   F
  0.6931670000000025  0.5019509999999983  0.7213849999999979   F   F   F
  0.6932350000000014  0.7909000000000006  0.2483750000000029   F   F   F
  0.7040000000000006  0.1383709999999994  0.5074990000000028   F   F   F
  0.7043219999999977  0.6325750000000028  0.0075000000000003   F   F   F
  0.7070620000000005  0.1628800000000012  0.0075000000000003   F   F   F
  0.7073850000000022  0.6570839999999976  0.5074990000000028   F   F   F
  0.7180699999999973  0.0019700000000000  0.2483750000000029   F   F   F
  0.7182170000000028  0.2935039999999987  0.7213849999999979   F   F   F