Automatic MP Grid
0
Monkhorst-Pack
1 3 5 
0 0 0
