
&CONTROL
    calculation   = 'vc-relax'
    restart_mode  = 'from_scratch'
    prefix        = 'Landau_9'
    pseudo_dir    = '/cluster/scratch/mnoe/QE/pps'
    outdir        = './'
    forc_conv_thr = 1.0d-7
    etot_conv_thr = 1.0d-7

/
&SYSTEM
    ibrav       = 0
    nat         = 32
    ntyp        = 2
    ecutwfc     = 120
    occupations = 'smearing'
    degauss     = 7.35d-4
    tot_charge  = -0.0
/
&ELECTRONS
    conv_thr    = 1.0d-8
    diagonalization = 'david'
/


&IONS
ion_dynamics = 'bfgs'
/

&CELL
cell_dynamics = 'bfgs'
cell_dofree = 'all'
/
CELL_PARAMETERS angstrom
        7.3236460686         0.0000000000         0.0000000000
        0.0000000000         7.3236460686         0.0000000000
        0.0000000000         0.0000000000         7.7495899200

ATOMIC_SPECIES
W 183.84 W_ONCV_LDA-4.0.upf
O 15.9994 O_ONCV_LDA-3.0.upf

ATOMIC_POSITIONS crystal
W 0.246099994         0.245890007         0.218119991 0 0 0
W 0.753900022         0.754109960         0.218119991 0 0 0
W 0.245890007         0.753900022         0.781880024 0 0 0
W 0.754109960         0.246099994         0.781880024 0 0 0
W 0.253899989         0.745890007         0.281880024 0 0 0
W 0.746100011         0.254109976         0.281880024 0 0 0
W 0.254109976         0.253899989         0.718119976 0 0 0
W 0.745890007         0.746100011         0.718119976 0 0 0
O 0.241679995         0.241730005         0.491670026 0 0 0
O 0.758319989         0.758270044         0.491670026 0 0 0
O 0.241730005         0.758319989         0.508329974 0 0 0
O 0.758270044         0.241679995         0.508329974 0 0 0
O 0.258320005         0.741729988         0.008329987 0 0 0
O 0.741680043         0.258269995         0.008329987 0 0 0
O 0.258269995         0.258320005         0.991670026 0 0 0
O 0.741729988         0.741680043         0.991670026 0 0 0
O 0.199410008         0.498859991         0.257030007 0 0 0
O 0.800589976         0.501140009         0.257030007 0 0 0
O 0.498859991         0.800589976         0.742969977 0 0 0
O 0.501140009         0.199410008         0.742969977 0 0 0
O 0.300589976         0.998859991         0.242969993 0 0 0
O 0.699409992         0.001139998         0.242969993 0 0 0
O 0.001139998         0.300589976         0.757030023 0 0 0
O 0.998859991         0.699409992         0.757030023 0 0 0
O 0.998269963         0.199410008         0.240070007 0 0 0
O 0.001730025         0.800589976         0.240070007 0 0 0
O 0.199410008         0.001730025         0.759930008 0 0 0
O 0.800589976         0.998269963         0.759930008 0 0 0
O 0.501730037         0.699409992         0.259930008 0 0 0
O 0.498270029         0.300589976         0.259930008 0 0 0
O 0.300589976         0.501730037         0.740069992 0 0 0
O 0.699409992         0.498270029         0.740069992 0 0 0

K_POINTS automatic
6 6 6 0 0 0
