
&CONTROL
    calculation   = 'vc-relax'
    restart_mode  = 'from_scratch'
    prefix        = 'Landau_18'
    pseudo_dir    = '/cluster/scratch/mnoe/QE/pps'
    outdir        = './'
    forc_conv_thr = 1.0d-7
    etot_conv_thr = 1.0d-7

/
&SYSTEM
    ibrav       = 0
    nat         = 32
    ntyp        = 2
    ecutwfc     = 120
    occupations = 'smearing'
    degauss     = 7.35d-4
    tot_charge  = -0.0
/
&ELECTRONS
    conv_thr    = 1.0d-8
    diagonalization = 'david'
/


&IONS
ion_dynamics = 'bfgs'
/

&CELL
cell_dynamics = 'bfgs'
cell_dofree = 'all'
/
CELL_PARAMETERS angstrom
        7.3236460686         0.0000000000         0.0000000000
        0.0000000000         7.7495899200         0.0000000000
        0.0000000000         0.0000000000         7.3236460686

ATOMIC_SPECIES
W 183.84 W_ONCV_LDA-4.0.upf
O 15.9994 O_ONCV_LDA-3.0.upf

ATOMIC_POSITIONS crystal
W 0.23642225464279085	0.26790994951066777	-0.006050969007319537	 0 0 0
W 0.7447358298449139	0.7320900504893322	-0.013901732401575224	 0 0 0
W 0.2635777453572092	0.23209007012393665	0.49394902407214075	 0 0 0
W 0.7552640342507816	0.7679100621834128	0.4860982510160926	 0 0 0
W 0.7635776619911275	0.26790994951066777	0.5060509759278593	 0 0 0
W 0.2552641099773064	0.7320900504893322	0.5139017489839074	 0 0 0
W 0.736422202104568	0.23209007012393665	0.0060509741752550325	 0 0 0
W 0.2447358900226936	0.7679100621834128	0.01390173756951072	 0 0 0
O 0.23940302920180245	0.0045195917205923305	-0.01718493899534129	 0 0 0
O 0.7547404836918722	-0.0045196660472906006	-0.019625104898616734	 0 0 0
O 0.2605969494074384	0.4954804466254545	0.48281503736697107	 0 0 0
O 0.7452593642259383	0.5045196660472906	0.48037487730570966	 0 0 0
O 0.7605968818597333	0.0045195917205923305	0.5171849638463702	 0 0 0
O 0.24525941334882984	-0.0045196660472906006	0.5196251239076317	 0 0 0
O 0.7394029660580772	0.4954804466254545	0.01718493742249136	 0 0 0
O 0.25474056526041106	0.5045196660472906	0.019625103325766804	 0 0 0
O 0.5052730860072026	0.23801353662818356	0.483650629556519	 0 0 0
O 0.5029991907892895	0.7537465953815491	0.5163494903854352	 0 0 0
O -0.005273058369982188	0.261986456631031	0.983650662556519	 0 0 0
O -0.0029991669718475705	0.7462535600331953	0.016349256674549888	 0 0 0
O 0.4947269139927975	0.23801353662818356	0.016349256674549888	 0 0 0
O 0.4970008092107105	0.7537465953815491	0.983650662556519	 0 0 0
O 0.005273074772560109	0.261986456631031	0.5163494903854352	 0 0 0
O 0.0029991833744254914	0.7462535600331953	0.483650629556519	 0 0 0
O 0.7336505837682397	0.2671629222419268	0.7510052269042252	 0 0 0
O 0.2663492962898059	0.770596317183976	0.2544520652607648	 0 0 0
O 0.7663495645391101	0.2328370615801881	0.2510052978672616	 0 0 0
O 0.23365064555651904	0.7294038379161983	0.7544520089027635	 0 0 0
O 0.2663492962898059	0.2671629222419268	0.7489946695472405	 0 0 0
O 0.7336505837682397	0.770596317183976	0.24554794934427035	 0 0 0
O 0.23365064555651904	0.2328370615801881	0.24899471673777354	 0 0 0
O 0.7663495645391101	0.7294038379161983	0.7455478875487022	 0 0 0

K_POINTS automatic
6 6 6 0 0 0
