
&CONTROL
    calculation   = 'vc-relax'
    restart_mode  = 'from_scratch'
    prefix        = 'Landau_4'
    pseudo_dir    = '/cluster/scratch/mnoe/QE/pps'
    outdir        = './'
    forc_conv_thr = 1.0d-7
    etot_conv_thr = 1.0d-7

/
&SYSTEM
    ibrav       = 0
    nat         = 32
    ntyp        = 2
    ecutwfc     = 120
    occupations = 'smearing'
    degauss     = 7.35d-4
    tot_charge  = -0.0
/
&ELECTRONS
    conv_thr    = 1.0d-8
    diagonalization = 'david'
/


&IONS
ion_dynamics = 'bfgs'
/

&CELL
cell_dynamics = 'bfgs'
cell_dofree = 'all'
/
CELL_PARAMETERS angstrom
        7.3236460686         0.0000000000         0.0000000000
        0.0000000000         7.7495899200         0.0000000000
        0.0000000000         0.0000000000         7.3236460686

ATOMIC_SPECIES
W 183.84 W_ONCV_LDA-4.0.upf
O 15.9994 O_ONCV_LDA-3.0.upf

ATOMIC_POSITIONS crystal
W 0.248150008	0.2825673327855722	0.00175	 0 0 0
W 0.751850024	0.7174326672144278	0.998249987	 0 0 0
W 0.251850008	0.21743268127715235	0.50174998	 0 0 0
W 0.748149976	0.7825673017855722	0.49825002	 0 0 0
W 0.751850024	0.2825673327855722	0.49825002	 0 0 0
W 0.248150008	0.7174326672144278	0.50174998	 0 0 0
W 0.748149976	0.21743268127715235	0.998249987	 0 0 0
W 0.251850008	0.7825673017855722	0.00175	 0 0 0
O 0.246590008	0.009658429397123604	0.00054	 0 0 0
O 0.753409975	0.9903415952899722	0.999459962	 0 0 0
O 0.253409975	0.4903415623529363	0.500540006	 0 0 0
O 0.746590025	0.5096584085840996	0.499460027	 0 0 0
O 0.753409975	0.009658429397123604	0.499460027	 0 0 0
O 0.246590008	0.9903415952899722	0.500540006	 0 0 0
O 0.746590025	0.4903415623529363	0.999459962	 0 0 0
O 0.253409975	0.5096584085840996	0.00054	 0 0 0
O 0.500509989	0.246500008	0.4531960055829541	 0 0 0
O 0.499490011	0.753500008	0.5468039654785728	 0 0 0
O 0.999490044	0.253499992	0.9531960355836727	 0 0 0
O 0.000509977	0.746500023	0.046804013166387215	 0 0 0
O 0.499490011	0.246500008	0.046804013166387215	 0 0 0
O 0.500509989	0.753500008	0.9531960355836727	 0 0 0
O 0.000509977	0.253499992	0.5468039654785728	 0 0 0
O 0.999490044	0.746500023	0.4531960055829541	 0 0 0
O 0.7031960406449601	0.249239998	0.749230052	 0 0 0
O 0.29680399741632735	0.750760033	0.250769981	 0 0 0
O 0.7968039634165669	0.250760017	0.249230019	 0 0 0
O 0.20319602164543912	0.749239998	0.750769948	 0 0 0
O 0.29680399741632735	0.249239998	0.750769948	 0 0 0
O 0.7031960406449601	0.750760033	0.249230019	 0 0 0
O 0.20319602164543912	0.250760017	0.250769981	 0 0 0
O 0.7968039634165669	0.749239998	0.749230052	 0 0 0

K_POINTS automatic
6 6 6 0 0 0
