&CONTROL
    calculation   = 'scf'
    restart_mode  = 'from_scratch'
    prefix        = 'Landau_21'
    pseudo_dir    = '/cluster/scratch/mnoe/QE/pps'
    outdir        = './'
/
&SYSTEM
    ibrav       = 0
    nat         = 32
    ntyp        = 2
    ecutwfc     = 120
    occupations = 'smearing'
    degauss     = 7.35d-4
    tot_charge  = -1
/
&ELECTRONS
    conv_thr    = 1.0d-8
    diagonalization = 'david'
/

CELL_PARAMETERS angstrom
   7.320248162   0.000000000   0.000000000
   0.000000000   7.708315113   0.000000000
   0.000000000   0.000000000   7.336695997

ATOMIC_SPECIES
W 183.84 W_ONCV_LDA-4.0.upf
O 15.9994 O_ONCV_LDA-3.0.upf

ATOMIC_POSITIONS crystal
W         0.240290009         0.281860003         0.009170001
W         0.759710007         0.718139997         0.990830031
W         0.259710007         0.218140012         0.509170002
W         0.740289993         0.781859972         0.490829998
W         0.759710007         0.281860003         0.490829998
W         0.240290009         0.718139997         0.509170002
W         0.740289993         0.218140012         0.990830031
W         0.259710007         0.781859972         0.009170001
O         0.232080001         0.008320000         0.002850000
O         0.767920032         0.991680023         0.997149987
O         0.267920015         0.491679992         0.502849980
O         0.732079968         0.508319977         0.497150020
O         0.767920032         0.008320000         0.497150020
O         0.232080001         0.991680023         0.502849980
O         0.732079968         0.491679992         0.997149987
O         0.267920015         0.508319977         0.002850000
O         0.502650022         0.231620002         0.449540004
O         0.497349978         0.768380013         0.550459963
O         0.997349946         0.268379982         0.949540037
O         0.002650022         0.731620018         0.050460012
O         0.497349978         0.231620002         0.050460012
O         0.502650022         0.768380013         0.949540037
O         0.002650022         0.268379982         0.550459963
O         0.997349946         0.731620018         0.449540004
O         0.699540037         0.245989997         0.745970029
O         0.300459996         0.754010050         0.254029987
O         0.800459963         0.254010019         0.245970013
O         0.199540020         0.745989981         0.754029971
O         0.300459996         0.245989997         0.754029971
O         0.699540037         0.754010050         0.245970013
O         0.199540020         0.254010019         0.254029987
O         0.800459963         0.745989981         0.745970029

K_POINTS automatic
6 6 6 0 0 0
