&CONTROL
    calculation   = 'scf'
    restart_mode  = 'from_scratch'
    prefix        = 'Landau_13'
    pseudo_dir    = '/cluster/scratch/mnoe/QE/pps'
    outdir        = './'
/
&SYSTEM
    ibrav       = 0
    nat         = 32
    ntyp        = 2
    ecutwfc     = 120
    occupations = 'smearing'
    degauss     = 7.35d-4
    tot_charge  = -0.2
/
&ELECTRONS
    conv_thr    = 1.0d-8
    diagonalization = 'david'
/

CELL_PARAMETERS angstrom
   7.361323324   0.000000000   0.000000000
   0.000000000   7.656210547   0.000000000
   0.000000000   0.000000000   7.384864379

ATOMIC_SPECIES
W 183.84 W_ONCV_LDA-4.0.upf
O 15.9994 O_ONCV_LDA-3.0.upf

ATOMIC_POSITIONS crystal
W 0.237979985	0.2792751231907384	0.01136	
W 0.7620199682596701	0.7207248768092616	0.988639992	
W 0.262019998	0.2207248926680322	0.511359975	
W 0.7379800042596701	0.7792751188126276	0.488640025	
W 0.7620199682596701	0.2792751231907384	0.488640025	
W 0.237979985	0.7207248768092616	0.511359975	
W 0.7379800042596701	0.2207248926680322	0.988639992	
W 0.262019998	0.7792751188126276	0.01136	
O 0.22781999	0.007615802081626152	0.00353	
O 0.7721800292596701	0.9923842028841909	0.996469958	
O 0.272180026	0.49238419850608006	0.503530042	
O 0.7278199432596701	0.5076157971158091	0.496469991	
O 0.7721800292596701	0.007615802081626152	0.496469991	
O 0.22781999	0.9923842028841909	0.503530042	
O 0.7278199432596701	0.49238419850608006	0.996469958	
O 0.272180026	0.5076157971158091	0.00353	
O 0.503290007	0.227239989	0.45586054372766166	
O 0.496709993	0.7727600238815593	0.5441394516117687	
O 0.996710026	0.272760011	0.9558605767276617	
O 0.003289938	0.7272399708815592	0.04413944822676102	
O 0.496709993	0.227239989	0.04413944822676102	
O 0.503290007	0.7727600238815593	0.9558605767276617	
O 0.003289938	0.272760011	0.5441394516117687	
O 0.996710026	0.7272399708815592	0.45586054372766166	
O 0.7058605621285612	0.245029999	0.7450100052596701	
O 0.2941394425320084	0.7549700288815593	0.254989981	
O 0.7941394653520986	0.254970016	0.245010019	
O 0.20586055972766168	0.7450300278815593	0.7549899672596702	
O 0.2941394425320084	0.245029999	0.7549899672596702	
O 0.7058605621285612	0.7549700288815593	0.245010019	
O 0.20586055972766168	0.254970016	0.254989981	
O 0.7941394653520986	0.7450300278815593	0.7450100052596701	

K_POINTS automatic
6 6 6 0 0 0
