
&CONTROL
    calculation   = 'vc-relax'
    restart_mode  = 'from_scratch'
    prefix        = 'Landau_38'
    pseudo_dir    = '/cluster/scratch/mnoe/QE/pps'
    outdir        = './'
    forc_conv_thr = 1.0d-7
    etot_conv_thr = 1.0d-7

/
&SYSTEM
    ibrav       = 0
    nat         = 32
    ntyp        = 2
    ecutwfc     = 120
    occupations = 'smearing'
    degauss     = 7.35d-4
    tot_charge  = -0.0
/
&ELECTRONS
    conv_thr    = 1.0d-8
    diagonalization = 'david'
/


&IONS
ion_dynamics = 'bfgs'
/

&CELL
cell_dynamics = 'bfgs'
cell_dofree = 'all'
/
CELL_PARAMETERS angstrom
        7.3236460686         0.0000000000         0.0000000000
        0.0000000000         7.7495899200         0.0000000000
        0.0000000000         0.0000000000         7.3236460686

ATOMIC_SPECIES
W 183.84 W_ONCV_LDA-4.0.upf
O 15.9994 O_ONCV_LDA-3.0.upf

ATOMIC_POSITIONS crystal
W 0.25	0.27656293166404183	0.0	 0 0 0
W 0.749999971842595	0.7234370683359581	0.0	 0 0 0
W 0.25	0.22343708509579588	0.5	 0 0 0
W 0.749999971842595	0.776562955219014	0.5	 0 0 0
W 0.749999971842595	0.27656293166404183	0.5	 0 0 0
W 0.25	0.7234370683359581	0.5	 0 0 0
W 0.749999971842595	0.22343708509579588	0.0	 0 0 0
W 0.25	0.776562955219014	0.0	 0 0 0
O 0.25	0.006876920675810818	0.0	 0 0 0
O 0.749999971842595	0.9931230653675952	0.0	 0 0 0
O 0.25	0.49312308892256734	0.5	 0 0 0
O 0.749999971842595	0.5068769346324048	0.5	 0 0 0
O 0.749999971842595	0.006876920675810818	0.5	 0 0 0
O 0.25	0.9931230653675952	0.5	 0 0 0
O 0.749999971842595	0.49312308892256734	0.0	 0 0 0
O 0.25	0.5068769346324048	0.0	 0 0 0
O 0.5	0.25	0.4624923856539637	 0 0 0
O 0.5	0.7500000113975672	0.537507639420684	 0 0 0
O 0.0	0.25	0.9624924186539637	 0 0 0
O 0.0	0.7500000113975672	0.03750758107057754	 0 0 0
O 0.5	0.25	0.03750758107057754	 0 0 0
O 0.5	0.7500000113975672	0.9624924186539637	 0 0 0
O 0.0	0.25	0.537507639420684	 0 0 0
O 0.0	0.7500000113975672	0.4624923856539637	 0 0 0
O 0.7124923887367209	0.25	0.749999971842595	 0 0 0
O 0.2875075861886312	0.7500000113975672	0.25	 0 0 0
O 0.787507667578089	0.25	0.25	 0 0 0
O 0.21249240165396371	0.7500000113975672	0.749999971842595	 0 0 0
O 0.2875075861886312	0.25	0.749999971842595	 0 0 0
O 0.7124923887367209	0.7500000113975672	0.25	 0 0 0
O 0.21249240165396371	0.25	0.25	 0 0 0
O 0.787507667578089	0.7500000113975672	0.749999971842595	 0 0 0

K_POINTS automatic
6 6 6 0 0 0
