
&CONTROL
    calculation   = 'vc-relax'
    restart_mode  = 'from_scratch'
    prefix        = 'Landau_17'
    pseudo_dir    = '/cluster/scratch/mnoe/QE/pps'
    outdir        = './'
    forc_conv_thr = 1.0d-7
    etot_conv_thr = 1.0d-7

/
&SYSTEM
    ibrav       = 0
    nat         = 32
    ntyp        = 2
    ecutwfc     = 120
    occupations = 'smearing'
    degauss     = 7.35d-4
    tot_charge  = -0.0
/
&ELECTRONS
    conv_thr    = 1.0d-8
    diagonalization = 'david'
/


&IONS
ion_dynamics = 'bfgs'
/

&CELL
cell_dynamics = 'bfgs'
cell_dofree = 'all'
/
CELL_PARAMETERS angstrom
        7.3236460686         0.0000000000         0.0000000000
        0.0000000000         7.7495899200         0.0000000000
        0.0000000000         0.0000000000         7.3236460686

ATOMIC_SPECIES
W 183.84 W_ONCV_LDA-4.0.upf
O 15.9994 O_ONCV_LDA-3.0.upf

ATOMIC_POSITIONS crystal
0.26528998300000006	0.281860003	0.250429983	 0 0 0
-0.25042993400000013	0.718139997	-0.7347099680000002	 0 0 0
0.23470998499999995	0.218140012	0.750429983	 0 0 0
0.750429983	0.781859972	0.7652899830000001	 0 0 0
0.734710017	0.281860003	0.749569985	 0 0 0
0.25042998299999997	0.718139997	0.734709985	 0 0 0
-0.2347099680000001	0.218140012	-0.7504299340000002	 0 0 0
0.24956998500000005	0.781859972	0.234710017	 0 0 0
0.26681002	0.00832	0.26219002900000005	 0 0 0
-0.26219005400000006	0.991680023	-0.7331899960000001	 0 0 0
0.233189996	0.491679992	0.7621900540000001	 0 0 0
0.762190029	0.508319977	0.766810036	 0 0 0
0.733189971	0.00832	0.7378099939999999	 0 0 0
0.26219003800000007	0.991680023	0.733190012	 0 0 0
-0.233189996	0.491679992	-0.7621900540000002	 0 0 0
0.23780997799999992	0.508319977	0.233189971	 0 0 0
0.49458998200000004	0.268130007	0.6995400039999999	 0 0 0
0.49888997200000007	0.738369997	0.800459963	 0 0 0
-0.9945899819999999	0.23187000800000002	1.199540037	 0 0 0
0.0011099640000000006	0.7616299739999999	0.300460012	 0 0 0
0.505410018	0.268130007	0.300460012	 0 0 0
0.5011100279999999	0.738369997	1.199540037	 0 0 0
-0.0054100819999999454	0.23187000800000002	0.800459963	 0 0 0
-1.0011100279999998	0.7616299739999999	0.6995400039999999	 0 0 0
0.6995400369999999	0.23837001200000002	2.001110028	 0 0 0
0.300459996	0.731869963	0.49458998200000004	 0 0 0
0.800459963	0.26163000300000006	0.5011100279999999	 0 0 0
0.19954001999999996	0.7681300079999999	1.994589982	 0 0 0
0.300459996	0.23837001200000002	0.998890036	 0 0 0
0.699540037	0.731869963	0.505410018	 0 0 0
0.19954002	0.26163000300000006	0.49888997200000007	 0 0 0
0.800459963	0.7681300079999999	1.005410082	 0 0 0

K_POINTS automatic
6 6 6 0 0 0
