
&CONTROL
    calculation   = 'vc-relax'
    restart_mode  = 'from_scratch'
    prefix        = 'Landau_31'
    pseudo_dir    = '/cluster/scratch/mnoe/QE/pps'
    outdir        = './'
    forc_conv_thr = 1.0d-7
    etot_conv_thr = 1.0d-7

/
&SYSTEM
    ibrav       = 0
    nat         = 32
    ntyp        = 2
    ecutwfc     = 120
    occupations = 'smearing'
    degauss     = 7.35d-4
    tot_charge  = -0.0
/
&ELECTRONS
    conv_thr    = 1.0d-8
    diagonalization = 'david'
/


&IONS
ion_dynamics = 'bfgs'
/

&CELL
cell_dynamics = 'bfgs'
cell_dofree = 'all'
/
CELL_PARAMETERS angstrom
        7.3236460686         0.0000000000         0.0000000000
        0.0000000000         7.7495899200         0.0000000000
        0.0000000000         0.0000000000         7.3236460686

ATOMIC_SPECIES
W 183.84 W_ONCV_LDA-4.0.upf
O 15.9994 O_ONCV_LDA-3.0.upf

ATOMIC_POSITIONS crystal
W 0.263440016	0.27855295415840853	-0.985859989	 0 0 0
W 0.7358599713144438	0.7214470458415915	-0.98656	 0 0 0
W 0.23656	0.2214470619469387	-0.48586000500000004	 0 0 0
W 0.7641399613144437	0.7785529884241738	-0.48656	 0 0 0
W 0.7365599823144438	0.27855295415840853	-0.5141400110000001	 0 0 0
W 0.264140011	0.7214470458415915	-0.513440016	 0 0 0
W 0.7634400153144437	0.2214470619469387	-1.0141399789999999	 0 0 0
W 0.235860005	0.7785529884241738	-1.013440033	 0 0 0
O 0.278640007	0.007423594506105907	-0.971499995	 0 0 0
O 0.7214999773144437	0.9925763952816016	-0.971359993	 0 0 0
O 0.221359993	0.49257642954736675	-0.471499995	 0 0 0
O 0.7785000193144438	0.5074236047183984	-0.471359993	 0 0 0
O 0.7213599753144437	0.007423594506105907	-0.5285000049999999	 0 0 0
O 0.278500005	0.9925763952816016	-0.528640007	 0 0 0
O 0.7786400213144438	0.49257642954736675	-1.0285000370000001	 0 0 0
O 0.221499995	0.5074236047183984	-1.028640039	 0 0 0
O 0.494030013	0.284209993	-0.542454635611972	 0 0 0
O 0.503910001	0.725780023580209	-0.4575453119115682	 0 0 0
O 0.005970001	0.215790007	-1.042454635611972	 0 0 0
O 0.996089966	0.774220009580209	-0.9575453633377513	 0 0 0
O 0.505969987	0.284209993	-0.9575453633377513	 0 0 0
O 0.496089999	0.725780023580209	-1.042454635611972	 0 0 0
O 0.99402998	0.215790007	-0.4575453119115682	 0 0 0
O 0.003910005	0.774220009580209	-0.542454635611972	 0 0 0
O 0.7075453135971245	0.225780007	-0.25391002268555624	 0 0 0
O 0.2924546179264158	0.7157900235802089	-0.755969987	 0 0 0
O 0.792454689773988	0.274219993	-0.753910001	 0 0 0
O 0.2075453483880279	0.784210009580209	-0.25597001868555624	 0 0 0
O 0.2924546179264158	0.225780007	-1.2460899836855561	 0 0 0
O 0.7075453135971245	0.7157900235802089	-0.7440300129999999	 0 0 0
O 0.2075453483880279	0.274219993	-0.7460899990000001	 0 0 0
O 0.792454689773988	0.784210009580209	-1.2440299976855562	 0 0 0

K_POINTS automatic
6 6 6 0 0 0
