
&CONTROL
    calculation   = 'vc-relax'
    restart_mode  = 'from_scratch'
    prefix        = 'Landau_15'
    pseudo_dir    = '/cluster/scratch/mnoe/QE/pps'
    outdir        = './'
    forc_conv_thr = 1.0d-7
    etot_conv_thr = 1.0d-7

/
&SYSTEM
    ibrav       = 0
    nat         = 32
    ntyp        = 2
    ecutwfc     = 120
    occupations = 'smearing'
    degauss     = 7.35d-4
    tot_charge  = -0.0
/
&ELECTRONS
    conv_thr    = 1.0d-8
    diagonalization = 'david'
/


&IONS
ion_dynamics = 'bfgs'
/

&CELL
cell_dynamics = 'bfgs'
cell_dofree = 'all'
/
CELL_PARAMETERS angstrom
        7.3236460686         0.0000000000         0.0000000000
        0.0000000000         7.7495899200         0.0000000000
        0.0000000000         0.0000000000         7.3236460686

ATOMIC_SPECIES
W 183.84 W_ONCV_LDA-4.0.upf
O 15.9994 O_ONCV_LDA-3.0.upf

ATOMIC_POSITIONS crystal
W 0.25	0.27589026982613063	0.0	 0 0 0
W 0.7499999682669566	0.7241097301738694	0.0	 0 0 0
W 0.25	0.22410974715718446	0.5	 0 0 0
W 0.7499999682669566	0.7758903003089023	0.5	 0 0 0
W 0.7499999682669566	0.27589026982613063	0.5	 0 0 0
W 0.25	0.7241097301738694	0.5	 0 0 0
W 0.7499999682669566	0.22410974715718446	0.0	 0 0 0
W 0.25	0.7758903003089023	0.0	 0 0 0
O 0.25	0.00669366764240889	0.0	 0 0 0
O 0.7499999682669566	0.9933063137079716	0.0	 0 0 0
O 0.25	0.49330634419074326	0.5	 0 0 0
O 0.7499999682669566	0.5066936862920284	0.5	 0 0 0
O 0.7499999682669566	0.00669366764240889	0.5	 0 0 0
O 0.25	0.9933063137079716	0.5	 0 0 0
O 0.7499999682669566	0.49330634419074326	0.0	 0 0 0
O 0.25	0.5066936862920284	0.0	 0 0 0
O 0.5	0.25	0.4641371761987953	 0 0 0
O 0.5	0.7500000147497282	0.5358628562506066	 0 0 0
O 0.0	0.25	0.9641372091987953	 0 0 0
O 0.0	0.7500000147497282	0.03586278426837871	 0 0 0
O 0.5	0.25	0.03586278426837871	 0 0 0
O 0.5	0.7500000147497282	0.9641372091987953	 0 0 0
O 0.0	0.25	0.5358628562506066	 0 0 0
O 0.0	0.7500000147497282	0.4641371761987953	 0 0 0
O 0.7141371754824367	0.25	0.7499999682669566	 0 0 0
O 0.28586279206816123	0.7500000147497282	0.25	 0 0 0
O 0.78586288798365	0.25	0.25	 0 0 0
O 0.21413719219879532	0.7500000147497282	0.7499999682669566	 0 0 0
O 0.28586279206816123	0.25	0.7499999682669566	 0 0 0
O 0.7141371754824367	0.7500000147497282	0.25	 0 0 0
O 0.21413719219879532	0.25	0.25	 0 0 0
O 0.78586288798365	0.7500000147497282	0.7499999682669566	 0 0 0

K_POINTS automatic
6 6 6 0 0 0
