&CONTROL
    calculation   = 'scf'
    restart_mode  = 'from_scratch'
    prefix        = 'Landau_35'
    pseudo_dir    = '/cluster/scratch/mnoe/QE/pps'
    outdir        = './'
/
&SYSTEM
    ibrav       = 0
    nat         = 16
    ntyp        = 2
    ecutwfc     = 120
    occupations = 'smearing'
    degauss     = 7.35d-4
    tot_charge  = -0.18
/
&ELECTRONS
    conv_thr    = 1.0d-8
    diagonalization = 'david'
/

CELL_PARAMETERS angstrom
5.25381786299620691853 0 0
0 5.25381786299620691853 0
0 0 7.61773549229586207722

ATOMIC_SPECIES
W 183.84 W_ONCV_LDA-4.0.upf
O 15.9994 O_ONCV_LDA-3.0.upf

ATOMIC_POSITIONS crystal
W           0.24999999999991082	0.24999999999984118	0.2062376206916044	
W           0.7500000229999217	0.7500000229999705	0.7937623943050119	
W           0.750000023000026	0.7500000230000676	0.2937623943083936	
W           0.24999999999989453	0.2500000000000502	0.7062376056949883	
O          0.2499999999996213	0.24999999999988004	0.46918368347561573	
O          0.7500000229999895	0.7500000230004515	0.530816316529586	
O          0.7500000229998206	0.7500000230000264	0.030816329524391402	
O          0.24999999999967598	0.25000000000007533	0.9691836834704022	
O           0.5108494394405532	0.4891505145593458	0.2500000000000586	
O           0.48915056059680595	0.5108494854032363	0.749999999999998	
O           -0.010849456440179664	1.0108494854399863	0.2500000000000057	
O           1.010849393403705	-0.010849422403564887	0.7500000000002859	
O           1.0108494854402121	0.51084943944016	0.2500000000002198	
O           -0.010849422403221794	0.4891505605967726	0.7499999999999654	
O           0.4891505145596207	-0.010849456440308575	0.2499999999998341	
O           0.5108494854037292	1.0108493934036373	0.7499999999996432	

K_POINTS automatic
9 9 6 0 0 0
