
&CONTROL
    calculation   = 'vc-relax'
    restart_mode  = 'from_scratch'
    prefix        = 'Landau_3'
    pseudo_dir    = '/cluster/scratch/mnoe/QE/pps'
    outdir        = './'
    forc_conv_thr = 1.0d-7
    etot_conv_thr = 1.0d-7

/
&SYSTEM
    ibrav       = 0
    nat         = 32
    ntyp        = 2
    ecutwfc     = 120
    occupations = 'smearing'
    degauss     = 7.35d-4
    tot_charge  = -0.0
/
&ELECTRONS
    conv_thr    = 1.0d-8
    diagonalization = 'david'
/


&IONS
ion_dynamics = 'bfgs'
/

&CELL
cell_dynamics = 'bfgs'
cell_dofree = 'all'
/
CELL_PARAMETERS angstrom
        7.3236460686         0.0000000000         0.0000000000
        0.0000000000         7.7495899200         0.0000000000
        0.0000000000         0.0000000000         7.3236460686

ATOMIC_SPECIES
W 183.84 W_ONCV_LDA-4.0.upf
O 15.9994 O_ONCV_LDA-3.0.upf

ATOMIC_POSITIONS crystal
0.248610007	0.28213151291218	0.00131	 0 0 0
0.751390009	0.71786848708782	0.998690014	 0 0 0
0.251389976	0.217868501728045	0.501309986	 0 0 0
0.748609991	0.78213148191218	0.498690014	 0 0 0
0.751390009	0.28213151291218	0.498690014	 0 0 0
0.248610007	0.71786848708782	0.501309986	 0 0 0
0.748609991	0.217868501728045	0.998690014	 0 0 0
0.251389976	0.78213148191218	0.00131	 0 0 0
0.247439995	0.008833758723985	0.00041	 0 0 0
0.752560005	0.99116626492361	0.99958999	 0 0 0
0.252560021	0.491166233180075	0.50041001	 0 0 0
0.747439995	0.50883373656346	0.499590023	 0 0 0
0.752560005	0.008833758723985	0.499590023	 0 0 0
0.247439995	0.99116626492361	0.50041001	 0 0 0
0.747439995	0.491166233180075	0.99958999	 0 0 0
0.252560021	0.50883373656346	0.00041	 0 0 0
0.500379993	0.247369999	0.4509433673094	 0 0 0
0.499620007	0.752630001	0.549056601249625	 0 0 0
0.999620007	0.252630001	0.95094339915812	 0 0 0
0.000380039	0.747370029	0.04905664974594	 0 0 0
0.499620007	0.247369999	0.04905664974594	 0 0 0
0.500379993	0.752630001	0.95094339915812	 0 0 0
0.000380039	0.252630001	0.549056601249625	 0 0 0
0.999620007	0.747370029	0.4509433673094	 0 0 0
0.700943401100905	0.249429995	0.749419983	 0 0 0
0.29905663384188	0.750570021	0.250580017	 0 0 0
0.79905660045812	0.250570005	0.249419934	 0 0 0
0.20094338333338502	0.74943001	0.750580017	 0 0 0
0.29905663384188	0.249429995	0.750580017	 0 0 0
0.700943401100905	0.750570021	0.249419934	 0 0 0
0.20094338333338502	0.250570005	0.250580017	 0 0 0
0.79905660045812	0.74943001	0.749419983	 0 0 0

K_POINTS automatic
6 6 6 0 0 0
