
&CONTROL
    calculation   = 'vc-relax'
    restart_mode  = 'from_scratch'
    prefix        = 'Landau_9'
    pseudo_dir    = '/cluster/scratch/mnoe/QE/pps'
    outdir        = './'
    forc_conv_thr = 1.0d-7
    etot_conv_thr = 1.0d-7

/
&SYSTEM
    ibrav       = 0
    nat         = 32
    ntyp        = 2
    ecutwfc     = 120
    occupations = 'smearing'
    degauss     = 7.35d-4
    tot_charge  = -0.0
/
&ELECTRONS
    conv_thr    = 1.0d-8
    diagonalization = 'david'
/


&IONS
ion_dynamics = 'bfgs'
/

&CELL
cell_dynamics = 'bfgs'
cell_dofree = 'all'
/
CELL_PARAMETERS angstrom
        7.3236460686         0.0000000000         0.0000000000
        0.0000000000         7.7495899200         0.0000000000
        0.0000000000         0.0000000000         7.3236460686

ATOMIC_SPECIES
W 183.84 W_ONCV_LDA-4.0.upf
O 15.9994 O_ONCV_LDA-3.0.upf

ATOMIC_POSITIONS crystal
W 0.24896055303988812	0.2783256297287118	0.0009815751044649397	 0 0 0
W 0.7510394272174347	0.7216743702712882	-0.0009815738121795327	 0 0 0
W 0.2510394469601119	0.22167438644550752	0.5009815756663282	 0 0 0
W 0.7489605352075458	0.778325635129512	0.49901842433367183	 0 0 0
W 0.7510394272174347	0.2783256297287118	0.49901842433367183	 0 0 0
W 0.24896055303988812	0.7216743702712882	0.5009815756663282	 0 0 0
W 0.7489605352075458	0.22167438644550752	-0.0009815738121795327	 0 0 0
W 0.2510394469601119	0.778325635129512	0.0009815751044649397	 0 0 0
O 0.24808236009397683	0.00735713190397495	0.00030509172937337676	 0 0 0
O 0.7519176183653836	-0.0073571335625815274	-0.0003050921226776297	 0 0 0
O 0.251917639007042	0.4926428718382187	0.500305090268529	 0 0 0
O 0.7480823440595968	0.5073571335625815	0.49969490787732235	 0 0 0
O 0.7519176183653836	0.00735713190397495	0.49969490787732235	 0 0 0
O 0.24808236009397683	-0.0073571335625815274	0.500305090268529	 0 0 0
O 0.7480823440595968	0.4926428718382187	-0.0003050921226776297	 0 0 0
O 0.251917639007042	0.5073571335625815	0.00030509172937337676	 0 0 0
O 0.5002843032396617	0.24803291691707732	0.4581822420621031	 0 0 0
O 0.4997156967603383	0.7519670865390079	0.5418177636871357	 0 0 0
O -0.0002843050938103491	0.25196708139733304	0.9581822750621032	 0 0 0
O 0.00028430043034560824	0.7480329220587523	0.04181774105975472	 0 0 0
O 0.4997156967603383	0.24803291691707732	0.04181774105975472	 0 0 0
O 0.5002843032396617	0.7519670865390079	0.9581822750621032	 0 0 0
O 0.00028430043034560824	0.25196708139733304	0.5418177636871357	 0 0 0
O -0.0002843050938103491	0.7480329220587523	0.4581822420621031	 0 0 0
O 0.708182255100374	0.24957073661100754	0.7495690329080685	 0 0 0
O 0.291817739150387	0.7504292685868538	0.25043094830442164	 0 0 0
O 0.7918177824746455	0.25042926338899246	0.24956905534768928	 0 0 0
O 0.20818225806210316	0.7495707400670928	0.7504309295169119	 0 0 0
O 0.291817739150387	0.24957073661100754	0.7504309295169119	 0 0 0
O 0.708182255100374	0.7504292685868538	0.24956905534768928	 0 0 0
O 0.20818225806210316	0.25042926338899246	0.25043094830442164	 0 0 0
O 0.7918177824746455	0.7495707400670928	0.7495690329080685	 0 0 0

K_POINTS automatic
6 6 6 0 0 0
