&CONTROL
    calculation   = 'scf'
    restart_mode  = 'from_scratch'
    prefix        = 'Landau_17'
    pseudo_dir    = '/cluster/scratch/mnoe/QE/pps'
    outdir        = './'
    forc_conv_thr = 1.0d-7
    etot_conv_thr = 1.0d-7

/
&SYSTEM
    ibrav       = 0
    nat         = 32
    ntyp        = 2
    ecutwfc     = 120
    occupations = 'smearing'
    degauss     = 7.35d-4
    tot_charge  = -0.36
/
&ELECTRONS
    conv_thr    = 1.0d-8
    diagonalization = 'david'
/

CELL_PARAMETERS angstrom
   7.321356939   0.000000000   0.000000000
   0.000000000   7.722447140   0.000000000
   0.000000000   0.000000000   7.332138130

ATOMIC_SPECIES
W 183.84 W_ONCV_LDA-4.0.upf
O 15.9994 O_ONCV_LDA-3.0.upf

ATOMIC_POSITIONS crystal
W         0.242140001         0.281860003         0.007430000
W         0.757859983         0.718139997         0.992569951
W         0.257859999         0.218140012         0.507430016
W         0.742140017         0.781859972         0.492570016
W         0.757859983         0.281860003         0.492570016
W         0.242140001         0.718139997         0.507430016
W         0.742140017         0.218140012         0.992569951
W         0.257859999         0.781859972         0.007430000
O         0.235499987         0.008320000         0.002310000
O         0.764500029         0.991680023         0.997690025
O         0.264500029         0.491679992         0.502309975
O         0.735499971         0.508319977         0.497689993
O         0.764500029         0.008320000         0.497689993
O         0.235499987         0.991680023         0.502309975
O         0.735499971         0.491679992         0.997690025
O         0.264500029         0.508319977         0.002310000
O         0.502149995         0.235119995         0.449540004
O         0.497850005         0.764879990         0.550459963
O         0.997850005         0.264879990         0.949540037
O         0.002150059         0.735119979         0.050460012
O         0.497850005         0.235119995         0.050460012
O         0.502149995         0.764879990         0.949540037
O         0.002150059         0.264879990         0.550459963
O         0.997850005         0.735119979         0.449540004
O         0.699540037         0.246749998         0.746739977
O         0.300459996         0.753250002         0.253260023
O         0.800459963         0.253250002         0.246739977
O         0.199540020         0.746749968         0.753260023
O         0.300459996         0.246749998         0.753260023
O         0.699540037         0.753250002         0.246739977
O         0.199540020         0.253250002         0.253260023
O         0.800459963         0.746749968         0.746739977

K_POINTS automatic
6 6 6 0 0 0
