
&CONTROL
    calculation   = 'vc-relax'
    restart_mode  = 'from_scratch'
    prefix        = 'Landau_8'
    pseudo_dir    = '/cluster/scratch/mnoe/QE/pps'
    outdir        = './'
    forc_conv_thr = 1.0d-7
    etot_conv_thr = 1.0d-7

/
&SYSTEM
    ibrav       = 0
    nat         = 32
    ntyp        = 2
    ecutwfc     = 120
    occupations = 'smearing'
    degauss     = 7.35d-4
    tot_charge  = -0.0
/
&ELECTRONS
    conv_thr    = 1.0d-8
    diagonalization = 'david'
/


&IONS
ion_dynamics = 'bfgs'
/

&CELL
cell_dynamics = 'bfgs'
cell_dofree = 'all'
/
CELL_PARAMETERS angstrom
        7.3236460686         0.0000000000         0.0000000000
        0.0000000000         7.7495899200         0.0000000000
        0.0000000000         0.0000000000         7.3236460686

ATOMIC_SPECIES
W 183.84 W_ONCV_LDA-4.0.upf
O 15.9994 O_ONCV_LDA-3.0.upf

ATOMIC_POSITIONS crystal
W 0.2571899980000001	0.28457680012000003	0.250210049	 0 0 0
W -0.25021005099999993	0.71542319988	-0.7428099530000001	 0 0 0
W 0.24281001900000004	0.21542321128	0.750210051	 0 0 0
W 0.750210049	0.78457676912	0.7571900140000001	 0 0 0
W 0.742809951	0.28457680012000003	0.749789998	 0 0 0
W 0.25021003500000005	0.71542319988	0.742810035	 0 0 0
W -0.24280995299999997	0.21542321128	-0.750210051	 0 0 0
W 0.24978998200000008	0.78457676912	0.24280995100000002	 0 0 0
O 0.25791000499999994	0.01346080024	0.25572995000000004	 0 0 0
O -0.255729977	0.98653922924	-0.7420900770000001	 0 0 0
O 0.242089995	0.4865391908	0.7557299930000001	 0 0 0
O 0.75572995	0.51346078564	0.757910005	 0 0 0
O 0.7420900500000001	0.01346080024	0.744270007	 0 0 0
O 0.255729993	0.98653922924	0.7420899950000001	 0 0 0
O -0.24209007699999996	0.4865391908	-0.7557299770000001	 0 0 0
O 0.24427000699999996	0.51346078564	0.24209005	 0 0 0
O 0.4974599850000001	0.258530003	0.7135824136	 0 0 0
O 0.499480017	0.7445300039999999	0.786417569	 0 0 0
O -0.99746005	0.24147001299999998	1.21358243508	 0 0 0
O 0.0005199930000000105	0.755469968	0.28641761296	 0 0 0
O 0.5025400149999999	0.258530003	0.28641761296	 0 0 0
O 0.500519983	0.7445300039999999	1.21358243508	 0 0 0
O -0.002539939999999949	0.24147001299999998	0.786417569	 0 0 0
O -1.000519983	0.755469968	0.7135824136	 0 0 0
O 0.7135824545199999	0.244530003	2.0005199830000002	 0 0 0
O 0.28641759792	0.741469999	0.49745998500000005	 0 0 0
O 0.7864175610799999	0.255470013	0.500519918	 0 0 0
O 0.21358242983999995	0.7585299729999999	1.997459985	 0 0 0
O 0.28641759792	0.244530003	0.999479942	 0 0 0
O 0.71358245452	0.741469999	0.50253995	 0 0 0
O 0.21358242984	0.255470013	0.499480017	 0 0 0
O 0.7864175610799999	0.7585299729999999	1.00253994	 0 0 0

K_POINTS automatic
6 6 6 0 0 0
