&CONTROL
    calculation   = 'scf'
    restart_mode  = 'from_scratch'
    prefix        = 'Landau_34'
    pseudo_dir    = '/cluster/scratch/mnoe/QE/pps'
    outdir        = './'
/
&SYSTEM
    ibrav       = 0
    nat         = 16
    ntyp        = 2
    ecutwfc     = 120
    occupations = 'smearing'
    degauss     = 7.35d-4
    tot_charge  = -0.1
/
&ELECTRONS
    conv_thr    = 1.0d-8
    diagonalization = 'david'
/

CELL_PARAMETERS angstrom
   5.244270370   0.000000000   0.000000000
   0.000000000   5.244270370   0.000000000
   0.000000000   0.000000000   7.621998444

ATOMIC_SPECIES
W 183.84 W_ONCV_LDA-4.0.upf
O 15.9994 O_ONCV_LDA-3.0.upf

ATOMIC_POSITIONS crystal
W      0.24999999999991337	0.2499999999998457	0.20657711698612996	
W      0.7500000229999241	0.7500000229999714	0.7934228980105831	
W      0.7500000230000252	0.7500000230000657	0.2934228980138681	
W      0.24999999999989755	0.25000000000004874	0.7065771019894171	
O     0.24999999999963213	0.24999999999988348	0.46982615040488385	
O     0.7500000229999898	0.7500000230004386	0.5301738496001693	
O     0.7500000229998257	0.7500000230000258	0.030173862595123075	
O     0.24999999999968525	0.25000000000007316	0.9698261503998192	
O      0.5090940261993945	0.49090592780050735	0.25000000000005695	
O      0.4909059738368972	0.5090940721631438	0.7499999999999981	
O      -0.009094043199031676	1.009094072198844	0.25000000000000555	
O      1.0090939801635992	-0.009094009163463028	0.7500000000002777	
O      1.009094072199063	0.5090940261990127	0.2500000000002135	
O      -0.009094009163129739	0.4909059738368648	0.7499999999999664	
O      0.4909059278007744	-0.009094043199156902	0.24999999999983885	
O      0.5090940721636226	1.0090939801635335	0.7499999999996534	

K_POINTS automatic
6 6 6 0 0 0
