&CONTROL
    calculation   = 'scf'
    restart_mode  = 'from_scratch'
    prefix        = 'Landau_1'
    pseudo_dir    = '/cluster/scratch/mnoe/QE/pps'
    outdir        = './'
/
&SYSTEM
    ibrav       = 0
    nat         = 32
    ntyp        = 2
    ecutwfc     = 120
    occupations = 'smearing'
    degauss     = 7.35d-4
    tot_charge  = -1.0
/
&ELECTRONS
    conv_thr    = 1.0d-8
    diagonalization = 'david'
/

CELL_PARAMETERS angstrom
   7.330319878   0.000000000   0.000000000
   0.000000000   7.743885133   0.000000000
   0.000000000   0.000000000   7.330415067

ATOMIC_SPECIES
W 183.84 W_ONCV_LDA-4.0.upf
O 15.9994 O_ONCV_LDA-3.0.upf

ATOMIC_POSITIONS crystal
W 0.2485660348396817	0.28146777265365097	0.0003345280474362389	
W 0.7504160328661308	0.718532227346349	-0.0014124709025637636	
W 0.2514339651603183	0.21853224247665912	0.5003345280521642	
W 0.7495839636340206	0.7814677456932635	0.49858752695216424	
W 0.7514339619340206	0.28146777265365097	0.4996654719478358	
W 0.2495839651603183	0.718532227346349	0.5014124730478358	
W 0.7485660345661308	0.21853224247665912	-0.0003345268974362418	
W 0.25041603483968167	0.7814677456932635	0.0014124720525637608	
O 0.24813530343453752	0.008213144821499086	-0.0007228303755743492	
O 0.7515483001995762	-0.008213124558010765	-0.0012658307255743473	
O 0.2518646948040521	0.49178684848160176	0.49927716736301525	
O 0.7484516954265656	0.5082131245580107	0.49873416831301526	
O 0.7518646918265657	0.008213144821499086	0.5007228314531231	
O 0.24845169430405206	-0.008213124558010765	0.5012658305031231	
O 0.7481353037995763	0.49178684848160176	0.0007228300255743513	
O 0.25154830393453753	0.5082131245580107	0.0012658303755743493	
O 0.5004764550763667	0.2480269190334854	0.45049908437101416	
O 0.49997045427636677	0.7515279070751413	0.5495008869292185	
O -0.00047645483267963034	0.2519730794665146	0.9504991173710142	
O 2.954511732037034e-05	0.7484720716113137	0.049500927980303554	
O 0.4995235449236332	0.2480269190334854	0.049500927980303554	
O 0.5000295457236332	0.7515279070751413	0.9504991173710142	
O 0.00047645257636678474	0.2519730794665146	0.5495008869292185	
O -2.9547373633215913e-05	0.7484720716113137	0.45049908437101416	
O 0.7004991151557428	0.25063796823195045	0.7497639160710885	
O 0.2995009135440245	0.7514019585976158	0.25053091579463943	
O 0.7995008890141798	0.24936203089404008	0.2497639204446394	
O 0.20049910037101418	0.7485980201097054	0.7505309146710886	
O 0.2995009135440245	0.25063796823195045	0.7502360821770817	
O 0.7004991151557428	0.7514019585976158	0.2494690874553606	
O 0.20049910037101418	0.24936203089404008	0.2502360828053606	
O 0.7995008890141798	0.7485980201097054	0.7494690835770818	

K_POINTS automatic
6 6 6 0 0 0
