&CONTROL
    calculation   = 'scf'
    restart_mode  = 'from_scratch'
    prefix        = 'Landau_3'
    pseudo_dir    = '/cluster/scratch/mnoe/QE/pps'
    outdir        = './'
/
&SYSTEM
    ibrav       = 0
    nat         = 32
    ntyp        = 2
    ecutwfc     = 120
    occupations = 'smearing'
    degauss     = 7.35d-4
    tot_charge  = -1.0
/
&ELECTRONS
    conv_thr    = 1.0d-8
    diagonalization = 'david'
/

CELL_PARAMETERS angstrom
   7.338596783   0.000000000   0.000000000
   0.000000000   7.734815689   0.000000000
   0.000000000   0.000000000   7.339893053

ATOMIC_SPECIES
W 183.84 W_ONCV_LDA-4.0.upf
O 15.9994 O_ONCV_LDA-3.0.upf

ATOMIC_POSITIONS crystal
W 0.247229993	0.2809685754458349	0.00262	
W 0.7527699852614784	0.719031424554165	0.997380027	
W 0.252770007	0.21903143985032267	0.502619973	
W 0.7472300052614784	0.7809685536267205	0.497379995	
W 0.7527699852614784	0.2809685754458349	0.497379995	
W 0.247229993	0.719031424554165	0.502619973	
W 0.7472300052614784	0.21903143985032267	0.997380027	
W 0.252770007	0.7809685536267205	0.00262	
O 0.244880007	0.008077148697678341	0.00082	
O 0.7551200042614784	0.9919228680830121	0.999180046	
O 0.255119976	0.49192284626389765	0.500819987	
O 0.7448799862614784	0.5080771319169879	0.499179981	
O 0.7551200042614784	0.008077148697678341	0.499179981	
O 0.244880007	0.9919228680830121	0.500819987	
O 0.7448799862614784	0.49192284626389765	0.999180046	
O 0.255119976	0.5080771319169879	0.00082	
O 0.500760019	0.244749996	0.45171971976482783	
O 0.499239981	0.7552499934423639	0.5482802570083729	
O 0.999239949	0.255250004	0.9517197527648278	
O 0.000760078	0.7447500464423639	0.04828028794275947	
O 0.499239981	0.244749996	0.04828028794275947	
O 0.500760019	0.7552499934423639	0.9517197527648278	
O 0.000760078	0.255250004	0.5482802570083729	
O 0.999239949	0.7447500464423639	0.45171971976482783	
O 0.7017197477301487	0.248850006	0.7488499892614784	
O 0.29828027549665065	0.751150029442364	0.251150006	
O 0.7982802617468944	0.251150009	0.248849994	
O 0.20171973576482782	0.7488500104423639	0.7511500012614785	
O 0.29828027549665065	0.248850006	0.7511500012614785	
O 0.7017197477301487	0.751150029442364	0.248849994	
O 0.20171973576482782	0.251150009	0.251150006	
O 0.7982802617468944	0.7488500104423639	0.7488499892614784	

K_POINTS automatic
6 6 6 0 0 0
