&CONTROL
    calculation   = 'scf'
    restart_mode  = 'from_scratch'
    prefix        = 'chempot_9'
    pseudo_dir    = '/cluster/scratch/mnoe/QE/pps'
    outdir        = './'
/
&SYSTEM
    ibrav       = 0
    nat         = 32 
    ntyp        = 2
    ecutwfc     = 120
    occupations = 'smearing'
    degauss     = 7.35d-4
    tot_charge  = -.90
/
&ELECTRONS
    conv_thr    = 1.0d-8
    diagonalization = 'david'
/
CELL_PARAMETERS angstrom
   7.460041384   0.000000000   0.000000000
   0.000000000   7.534149256   0.000000000
   0.000000000   0.000000000   7.424791202


ATOMIC_SPECIES
W 183.84 W_ONCV_LDA-4.0.upf
O 15.9994 O_ONCV_LDA-3.0.upf

ATOMIC_POSITIONS crystal
W 0.234280002	0.29340639076	0.01485	
W 0.765720031	0.7065936092399999	0.985149994	
W 0.265720015	0.20659360894	0.514850006	
W 0.734279969	0.7934063597600001	0.485149994	
W 0.765720031	0.29340639076	0.485149994	
W 0.234280002	0.7065936092399999	0.514850006	
W 0.734279969	0.20659360894	0.985149994	
W 0.265720015	0.7934063597600001	0.01485	
O 0.220989996	0.03016840102	0.00462	
O 0.77901002	0.96983164952	0.995379985	
O 0.279009988	0.46983158690000004	0.504620015	
O 0.72098998	0.5301684137200001	0.495380018	
O 0.77901002	0.03016840102	0.495380018	
O 0.220989996	0.96983164952	0.504620015	
O 0.72098998	0.46983158690000004	0.995379985	
O 0.279009988	0.5301684137200001	0.00462	
O 0.50429999	0.220240005	0.5092202448	
O 0.49570001	0.779759995	0.4907797884999999	
O 0.99570001	0.279759995	1.00922022884	
O 0.004299998	0.720239974	-0.009220183920000007	
O 0.49570001	0.220240005	-0.009220183920000007	
O 0.50429999	0.779759995	1.00922022884	
O 0.004299998	0.279759995	0.4907797884999999	
O 0.99570001	0.720239974	0.5092202448	
O 0.75922031146	0.243499997	0.74348002	
O 0.24077980416000003	0.756500019	0.25651998	
O 0.7407797548399999	0.256500003	0.243479971	
O 0.25922026182	0.743500012	0.75651998	
O 0.24077980416000003	0.243499997	0.75651998	
O 0.75922031146	0.756500019	0.243479971	
O 0.25922026182	0.256500003	0.25651998	
O 0.7407797548399999	0.743500012	0.74348002	

K_POINTS automatic
6 6 6 0 0 0
