&CONTROL
    calculation   = 'scf'
    restart_mode  = 'from_scratch'
    prefix        = 'Landau_17'
    pseudo_dir    = '/cluster/scratch/mnoe/QE/pps'
    outdir        = './'
/
&SYSTEM
    ibrav       = 0
    nat         = 16
    ntyp        = 2
    ecutwfc     = 120
    occupations = 'smearing'
    degauss     = 7.35d-4
    tot_charge  = -0.26
/
&ELECTRONS
    conv_thr    = 1.0d-8
    diagonalization = 'david'
/

CELL_PARAMETERS angstrom
   5.244646442   0.000000000   0.000000000
   0.000000000   5.244646442   0.000000000
   0.000000000   0.000000000   7.676287843

ATOMIC_SPECIES
W 183.84 W_ONCV_LDA-4.0.upf
O 15.9994 O_ONCV_LDA-3.0.upf

ATOMIC_POSITIONS crystal
W       0.24999999999995667	0.24999999999992284	0.212348553993065	
W       0.750000022999962	0.7500000229999857	0.7876514610052915	
W       0.7500000230000127	0.7500000230000329	0.28765146100693406	
W       0.24999999999994876	0.25000000000002437	0.7123485389947086	
O      0.24999999999981606	0.24999999999994174	0.4807480882024419	
O      0.7500000229999949	0.7500000230002193	0.5192519118000847	
O      0.7500000229999129	0.7500000230000129	0.019251924797561538	
O      0.24999999999984263	0.2500000000000366	0.9807480881999097	
O       0.47925200109969723	0.5207479529002537	0.2500000000000285	
O       0.5207479989184486	0.47925204708157193	0.749999999999999	
O       0.02074798190048416	0.9792520470994219	0.2500000000000028	
O       0.9792519550817995	0.020748015918268487	0.7500000000001389	
O       0.9792520470995316	0.47925200109950633	0.25000000000010675	
O       0.02074801591843513	0.5207479989184324	0.7499999999999832	
O       0.5207479529003872	0.02074798190042155	0.24999999999991943	
O       0.4792520470818113	0.9792519550817667	0.7499999999998267	

K_POINTS automatic
6 6 6 0 0 0
