&CONTROL
    calculation   = 'scf'
    restart_mode  = 'from_scratch'
    prefix        = 'Landau_7'
    pseudo_dir    = '/cluster/scratch/mnoe/QE/pps'
    outdir        = './'
/
&SYSTEM
    ibrav       = 0
    nat         = 32
    ntyp        = 2
    ecutwfc     = 120
    occupations = 'smearing'
    degauss     = 7.35d-4
    tot_charge  = -0.6
/
&ELECTRONS
    conv_thr    = 1.0d-8
    diagonalization = 'david'
/

CELL_PARAMETERS angstrom
   7.378939905   0.000000000   0.000000000
   0.000000000   7.689817520   0.000000000
   0.000000000   0.000000000   7.385448396

ATOMIC_SPECIES
W 183.84 W_ONCV_LDA-4.0.upf
O 15.9994 O_ONCV_LDA-3.0.upf

ATOMIC_POSITIONS crystal
W 0.24353001	0.278393340289358	0.00612	
W 0.7564699555724163	0.721606659710642	0.993880002	
W 0.25646999	0.2216066758623659	0.50612003	
W 0.7435300075724162	0.7783933449928017	0.493880002	
W 0.7564699555724163	0.278393340289358	0.493880002	
W 0.24353001	0.721606659710642	0.50612003	
W 0.7435300075724162	0.2216066758623659	0.993880002	
W 0.25646999	0.7783933449928017	0.00612	
O 0.238059992	0.00737557826874911	0.0019	
O 0.7619400065724162	0.9926244205450472	0.99809997	
O 0.261940008	0.49262442524849076	0.50190003	
O 0.7380599565724162	0.5073755794549528	0.498100002	
O 0.7619400065724162	0.00737557826874911	0.498100002	
O 0.238059992	0.9926244205450472	0.50190003	
O 0.7380599565724162	0.49262442524849076	0.99809997	
O 0.261940008	0.5073755794549528	0.0019	
O 0.501770034	0.237749996	0.45801667641877486	
O 0.498229966	0.7622500522758598	0.5419833285881167	
O 0.998229998	0.262250004	0.9580167094187748	
O 0.00177002	0.7377500132758599	0.04198330733295351	
O 0.498229966	0.237749996	0.04198330733295351	
O 0.501770034	0.7622500522758598	0.9580167094187748	
O 0.00177002	0.262250004	0.5419833285881167	
O 0.998229998	0.7377500132758599	0.45801667641877486	
O 0.7080166898394671	0.247320003	0.7473199755724163	
O 0.29198330515364135	0.7526800442758599	0.252680006	
O 0.7919833470157005	0.252679997	0.247319929	
O 0.20801669241877485	0.7473200202758599	0.7526799875724162	
O 0.29198330515364135	0.247320003	0.7526799875724162	
O 0.7080166898394671	0.7526800442758599	0.247319929	
O 0.20801669241877485	0.252679997	0.252680006	
O 0.7919833470157005	0.7473200202758599	0.7473199755724163	

K_POINTS automatic
6 6 6 0 0 0
