
&CONTROL
    calculation   = 'vc-relax'
    restart_mode  = 'from_scratch'
    prefix        = 'Landau_37'
    pseudo_dir    = '/cluster/scratch/mnoe/QE/pps'
    outdir        = './'
    forc_conv_thr = 1.0d-7
    etot_conv_thr = 1.0d-7

/
&SYSTEM
    ibrav       = 0
    nat         = 32
    ntyp        = 2
    ecutwfc     = 120
    occupations = 'smearing'
    degauss     = 7.35d-4
    tot_charge  = -0.0
/
&ELECTRONS
    conv_thr    = 1.0d-8
    diagonalization = 'david'
/


&IONS
ion_dynamics = 'bfgs'
/

&CELL
cell_dynamics = 'bfgs'
cell_dofree = 'all'
/
CELL_PARAMETERS angstrom
        7.3236460686         0.0000000000         0.0000000000
        0.0000000000         7.7495899200         0.0000000000
        0.0000000000         0.0000000000         7.3236460686

ATOMIC_SPECIES
W 183.84 W_ONCV_LDA-4.0.upf
O 15.9994 O_ONCV_LDA-3.0.upf

ATOMIC_POSITIONS crystal
W 0.232889993	0.2781815201945123	0.01616	 0 0 0
W 0.7671099554464537	0.7218184798054876	0.983840008	 0 0 0
W 0.267109991	0.22181849602758427	0.516160024	 0 0 0
W 0.7328900054464537	0.7781815270795085	0.483839976	 0 0 0
W 0.7671099554464537	0.2781815201945123	0.483839976	 0 0 0
W 0.232889993	0.7218184798054876	0.516160024	 0 0 0
W 0.7328900054464537	0.22181849602758427	0.983840008	 0 0 0
W 0.267109991	0.7781815270795085	0.01616	 0 0 0
O 0.218429991	0.00731787219308337	0.00503	 0 0 0
O 0.7815700054464536	0.992682125142887	0.994970041	 0 0 0
O 0.281570025	0.49268213202788314	0.505029992	 0 0 0
O 0.7184299554464537	0.507317874857113	0.494970008	 0 0 0
O 0.7815700054464536	0.00731787219308337	0.494970008	 0 0 0
O 0.218429991	0.992682125142887	0.505029992	 0 0 0
O 0.7184299554464537	0.49268213202788314	0.994970041	 0 0 0
O 0.281570025	0.507317874857113	0.00503	 0 0 0
O 0.504679983	0.217620002	0.4585346182278262	 0 0 0
O 0.495320017	0.7823800003314498	0.5414653891013631	 0 0 0
O 0.995320017	0.282379982	0.9585346512278262	 0 0 0
O 0.004679918	0.7176200053314498	0.041465363553467596	 0 0 0
O 0.495320017	0.217620002	0.041465363553467596	 0 0 0
O 0.504679983	0.7823800003314498	0.9585346512278262	 0 0 0
O 0.004679918	0.282379982	0.5414653891013631	 0 0 0
O 0.995320017	0.7176200053314498	0.4585346182278262	 0 0 0
O 0.7085346304521832	0.242929991	0.7429100104464537	 0 0 0
O 0.29146536221862734	0.7570700113314498	0.25708997	 0 0 0
O 0.7914654086549096	0.257070009	0.24291003	 0 0 0
O 0.20853463422782623	0.7429299943314498	0.7570899504464537	 0 0 0
O 0.29146536221862734	0.242929991	0.7570899504464537	 0 0 0
O 0.7085346304521832	0.7570700113314498	0.24291003	 0 0 0
O 0.20853463422782623	0.257070009	0.25708997	 0 0 0
O 0.7914654086549096	0.7429299943314498	0.7429100104464537	 0 0 0

K_POINTS automatic
6 6 6 0 0 0
