
&CONTROL
    calculation   = 'vc-relax'
    restart_mode  = 'from_scratch'
    prefix        = 'Landau_27'
    pseudo_dir    = '/cluster/scratch/mnoe/QE/pps'
    outdir        = './'
    forc_conv_thr = 1.0d-7
    etot_conv_thr = 1.0d-7

/
&SYSTEM
    ibrav       = 0
    nat         = 32
    ntyp        = 2
    ecutwfc     = 120
    occupations = 'smearing'
    degauss     = 7.35d-4
    tot_charge  = -0.0
/
&ELECTRONS
    conv_thr    = 1.0d-8
    diagonalization = 'david'
/


&IONS
ion_dynamics = 'bfgs'
/

&CELL
cell_dynamics = 'bfgs'
cell_dofree = 'all'
/
CELL_PARAMETERS angstrom
        7.3236460686         0.0000000000         0.0000000000
        0.0000000000         7.7495899200         0.0000000000
        0.0000000000         0.0000000000         7.3236460686

ATOMIC_SPECIES
W 183.84 W_ONCV_LDA-4.0.upf
O 15.9994 O_ONCV_LDA-3.0.upf

ATOMIC_POSITIONS crystal
W 0.2468816591196644	0.27125688318613533	0.002944725313394819	 0 0 0
W 0.7531182816523039	0.7287431168138646	-0.002944721436538598	 0 0 0
W 0.25311834088033563	0.22874313533652255	0.5029447269989845	 0 0 0
W 0.7468816056226375	0.771256961388536	0.49705527300101554	 0 0 0
W 0.7531182816523039	0.27125688318613533	0.49705527300101554	 0 0 0
W 0.2468816591196644	0.7287431168138646	0.5029447269989845	 0 0 0
W 0.7468816056226375	0.22874313533652255	-0.002944721436538598	 0 0 0
W 0.25311834088033563	0.771256961388536	0.002944725313394819	 0 0 0
O 0.24424708028193048	0.005431395711924852	0.0009152751881201305	 0 0 0
O 0.7557528550961509	-0.005431446687744626	-0.000915276368032889	 0 0 0
O 0.25575291702112607	0.494568631514656	0.500915270805587	 0 0 0
O 0.7442470321787905	0.5054314466877446	0.4990847236319671	 0 0 0
O 0.7557528550961509	0.005431395711924852	0.4990847236319671	 0 0 0
O 0.24424708028193048	-0.005431446687744626	0.500915270805587	 0 0 0
O 0.7442470321787905	0.494568631514656	-0.000915276368032889	 0 0 0
O 0.25575291702112607	0.5054314466877446	0.0009152751881201305	 0 0 0
O 0.5008529097189851	0.24409875075123194	0.4754667181863094	 0 0 0
O 0.49914709028101484	0.7559012896170239	0.5245333650614072	 0 0 0
O -0.0008529152814310474	0.25590124419199906	0.9754667511863094	 0 0 0
O 0.0008529012910368249	0.7440987961762567	0.024533199179264165	 0 0 0
O 0.49914709028101484	0.24409875075123194	0.024533199179264165	 0 0 0
O 0.5008529097189851	0.7559012896170239	0.9754667511863094	 0 0 0
O 0.0008529012910368249	0.25590124419199906	0.5245333650614072	 0 0 0
O -0.0008529152814310474	0.7440987961762567	0.4754667181863094	 0 0 0
O 0.7254666913011221	0.24871220983302259	0.7487070987242057	 0 0 0
O 0.27453322545116104	0.7512878357605612	0.251292844913265	 0 0 0
O 0.7745334214239366	0.25128779016697744	0.24870716604306786	 0 0 0
O 0.22546673418630941	0.7487122502012784	0.7512927885507357	 0 0 0
O 0.27453322545116104	0.24871220983302259	0.7512927885507357	 0 0 0
O 0.7254666913011221	0.7512878357605612	0.24870716604306786	 0 0 0
O 0.22546673418630941	0.25128779016697744	0.251292844913265	 0 0 0
O 0.7745334214239366	0.7487122502012784	0.7487070987242057	 0 0 0

K_POINTS automatic
6 6 6 0 0 0
