&CONTROL
    calculation   = 'scf'
    restart_mode  = 'from_scratch'
    prefix        = 'Landau_17'
    pseudo_dir    = '/cluster/scratch/mnoe/QE/pps'
    outdir        = './'
/
&SYSTEM
    ibrav       = 0
    nat         = 32
    ntyp        = 2
    ecutwfc     = 120
    occupations = 'smearing'
    degauss     = 7.35d-4
    tot_charge  = -1.0
/
&ELECTRONS
    conv_thr    = 1.0d-8
    diagonalization = 'david'
/

CELL_PARAMETERS angstrom
   7.494801800   0.000000000   0.000000000
   0.000000000   7.608494098   0.000000000
   0.000000000   0.000000000   7.496286699

ATOMIC_SPECIES
W 183.84 W_ONCV_LDA-4.0.upf
O 15.9994 O_ONCV_LDA-3.0.upf

ATOMIC_POSITIONS crystal
W 0.2460732003729107	0.26850792619735564	0.00370817261686755	
W 0.7539267250436419	0.7314920738026444	-0.0037081677349004574	
W 0.2539267996270893	0.23149209323858397	0.503708174739462	
W 0.7460731330062842	0.7685080327114898	0.49629182526053806	
W 0.7539267250436419	0.26850792619735564	0.49629182526053806	
W 0.2460732003729107	0.7314920738026444	0.503708174739462	
W 0.7460731330062842	0.23149209323858397	-0.0037081677349004574	
W 0.2539267996270893	0.7685080327114898	0.00370817261686755	
O 0.2427555825772458	0.004682498303905369	0.0011525687554105348	
O 0.7572443360470048	-0.004682568458641387	-0.001152570241226601	
O 0.2572444140266032	0.4953175380554928	0.5011525632366651	
O 0.7427555220029214	0.5046825684586413	0.4988474297587734	
O 0.7572443360470048	0.004682498303905369	0.4988474297587734	
O 0.2427555825772458	-0.004682568458641387	0.5011525632366651	
O 0.7427555220029214	0.4953175380554928	-0.001152570241226601	
O 0.2572444140266032	0.5046825684586413	0.0011525687554105348	
O 0.5010740344609442	0.24256879724229208	0.48218845890127854	
O 0.4989259655390557	0.7574312574806967	0.517811654484735	
O -0.0010740414655057632	0.25743119638992473	0.9821884919012785	
O 0.001074023847972298	0.7425688583330641	0.01781143289240672	
O 0.4989259655390557	0.24256879724229208	0.01781143289240672	
O 0.5010740344609442	0.7574312574806967	0.9821884919012785	
O 0.001074023847972298	0.25743119638992473	0.517811654484735	
O -0.0010740414655057632	0.7425688583330641	0.48218845890127854	
O 0.7321884164903019	0.24837833830825065	0.7483719020971479	
O 0.2678114701236843	0.7516217229947808	0.25162802692781516	
O 0.7678117254597719	0.2516216616917493	0.2483719868690484	
O 0.23218847490127853	0.7483783930312394	0.7516279559527782	
O 0.2678114701236843	0.24837833830825065	0.7516279559527782	
O 0.7321884164903019	0.7516217229947808	0.2483719868690484	
O 0.23218847490127853	0.2516216616917493	0.25162802692781516	
O 0.7678117254597719	0.7483783930312394	0.7483719020971479	

K_POINTS automatic
6 6 6 0 0 0
