&CONTROL
    calculation   = 'scf'
    restart_mode  = 'from_scratch'
    prefix        = 'Landau_15'
    pseudo_dir    = '/cluster/scratch/mnoe/QE/pps'
    outdir        = './'
/
&SYSTEM
    ibrav       = 0
    nat         = 32
    ntyp        = 2
    ecutwfc     = 120
    occupations = 'smearing'
    degauss     = 7.35d-4
    tot_charge  = -0.84
/
&ELECTRONS
    conv_thr    = 1.0d-8
    diagonalization = 'david'
/

CELL_PARAMETERS angstrom
   7.328671827   0.000000000   0.000000000
   0.000000000   7.707444577   0.000000000
   0.000000000   0.000000000   7.328671827

ATOMIC_SPECIES
W 183.84 W_ONCV_LDA-4.0.upf
O 15.9994 O_ONCV_LDA-3.0.upf

ATOMIC_POSITIONS crystal
W 0.26349003000000004	0.281860003	0.250390017	
W -0.25039002	0.718139997	-0.7365099860000001	
W 0.23650997	0.218140012	0.750389972	
W 0.750390017	0.781859972	0.76349003	
W 0.7365099829999999	0.281860003	0.749610028	
W 0.250389972	0.718139997	0.73650997	
W -0.23650998599999995	0.218140012	-0.7503900200000001	
W 0.24961002800000004	0.781859972	0.23650998299999998	
O 0.2648399779999999	0.00832	0.26075995700000004	
O -0.260759936	0.991680023	-0.7351600220000001	
O 0.235160005	0.491679992	0.760759953	
O 0.760759957	0.508319977	0.7648399619999999	
O 0.735160043	0.00832	0.739239998	
O 0.260759969	0.991680023	0.735159989	
O -0.23516002199999997	0.491679992	-0.7607599360000001	
O 0.23924001399999995	0.508319977	0.23516004299999999	
O 0.49522000600000005	0.26599998700000005	0.6995400039999999	
O 0.49902006600000015	0.7397398929999999	0.800459963	
O -0.995219989	0.233999998	1.199540037	
O 0.000980022999999976	0.760259955	0.300460012	
O 0.5047799940000001	0.26599998700000005	0.300460012	
O 0.500979934	0.7397398929999999	1.199540037	
O -0.004779938999999976	0.233999998	0.800459963	
O -1.000979951	0.760259955	0.6995400039999999	
O 0.6995400369999999	0.23973998400000002	2.000979934	
O 0.300459996	0.7339999679999999	0.495219989	
O 0.800459963	0.260260001	0.5009799509999999	
O 0.19954001999999996	0.76599988	1.995220006	
O 0.300459996	0.23973998400000002	0.9990199940000001	
O 0.699540037	0.7339999679999999	0.504780011	
O 0.19954002	0.260260001	0.4990200490000001	
O 0.800459963	0.76599988	1.004779922	

K_POINTS automatic
6 6 6 0 0 0
