&CONTROL
    calculation   = 'scf'
    restart_mode  = 'from_scratch'
    prefix        = 'Landau_19'
    pseudo_dir    = '/cluster/scratch/mnoe/QE/pps'
    outdir        = './'
/
&SYSTEM
    ibrav       = 0
    nat         = 16
    ntyp        = 2
    ecutwfc     = 120
    occupations = 'smearing'
    degauss     = 7.35d-4
    tot_charge  = -1
/
&ELECTRONS
    conv_thr    = 1.0d-8
    diagonalization = 'david'
/

CELL_PARAMETERS angstrom
   5.248236204   0.000000000   0.000000000
   0.000000000   5.248236204   0.000000000
   0.000000000   0.000000000   7.668876845

ATOMIC_SPECIES
W 183.84 W_ONCV_LDA-4.0.upf
O 15.9994 O_ONCV_LDA-3.0.upf

ATOMIC_POSITIONS crystal
W      0.2499999999999516	0.24999999999991376	0.2116695614040138	
W      0.7500000229999576	0.750000022999984	0.7883304535941493	
W      0.7500000230000141	0.7500000230000368	0.28833045359598514	
W      0.24999999999994274	0.25000000000002726	0.7116695464058508	
O     0.24999999999979441	0.24999999999993489	0.4794631543439057	
O     0.7500000229999944	0.7500000230002452	0.5205368456589181	
O     0.7500000229999026	0.7500000230000143	0.02053685865609819	
O     0.2499999999998241	0.25000000000004086	0.9794631543410754	
O      0.48276282758201455	0.5172371264179305	0.2500000000000318	
O      0.5172371724382661	0.48276287356175684	0.7499999999999989	
O      0.017237155418188176	0.9827628735817069	0.2500000000000031	
O      0.9827627815620112	0.017237189438064772	0.7500000000001552	
O      0.9827628735818295	0.48276282758180117	0.2500000000001193	
O      0.017237189438251026	0.517237172438248	0.7499999999999812	
O      0.5172371264180798	0.017237155418118197	0.24999999999990996	
O      0.4827628735620244	0.9827627815619746	0.7499999999998063	

K_POINTS automatic
6 6 6 0 0 0
