
&CONTROL
    calculation   = 'vc-relax'
    restart_mode  = 'from_scratch'
    prefix        = 'Landau_24'
    pseudo_dir    = '/cluster/scratch/mnoe/QE/pps'
    outdir        = './'
    forc_conv_thr = 1.0d-7
    etot_conv_thr = 1.0d-7

/
&SYSTEM
    ibrav       = 0
    nat         = 32
    ntyp        = 2
    ecutwfc     = 120
    occupations = 'smearing'
    degauss     = 7.35d-4
    tot_charge  = -0.0
/
&ELECTRONS
    conv_thr    = 1.0d-8
    diagonalization = 'david'
/


&IONS
ion_dynamics = 'bfgs'
/

&CELL
cell_dynamics = 'bfgs'
cell_dofree = 'all'
/
CELL_PARAMETERS angstrom
        7.3236460686         0.0000000000         0.0000000000
        0.0000000000         7.7495899200         0.0000000000
        0.0000000000         0.0000000000         7.3236460686

ATOMIC_SPECIES
W 183.84 W_ONCV_LDA-4.0.upf
O 15.9994 O_ONCV_LDA-3.0.upf

ATOMIC_POSITIONS crystal
W 0.2389	0.2759171526388995	0.01048	 0 0 0
W 0.7610999844098564	0.7240828473611005	0.989520045	 0 0 0
W 0.2611	0.2240828643354844	0.510479988	 0 0 0
W 0.7388999524098564	0.7759171828448028	0.489520012	 0 0 0
W 0.7610999844098564	0.2759171526388995	0.489520012	 0 0 0
W 0.2389	0.7240828473611005	0.510479988	 0 0 0
W 0.7388999524098564	0.2240828643354844	0.989520045	 0 0 0
W 0.2611	0.7759171828448028	0.01048	 0 0 0
O 0.229530007	0.006700991317855618	0.00326	 0 0 0
O 0.7704699774098563	0.9932989902200808	0.996739977	 0 0 0
O 0.270469993	0.49329902042598417	0.503260023	 0 0 0
O 0.7295299594098564	0.5067010097799192	0.49674001	 0 0 0
O 0.7704699774098563	0.006700991317855618	0.49674001	 0 0 0
O 0.229530007	0.9932989902200808	0.503260023	 0 0 0
O 0.7295299594098564	0.49329902042598417	0.996739977	 0 0 0
O 0.270469993	0.5067010097799192	0.00326	 0 0 0
O 0.503030015	0.228990001	0.46407144243218545	 0 0 0
O 0.496969985	0.7710099976157597	0.5359285897224857	 0 0 0
O 0.996970018	0.271009968	0.9640714754321854	 0 0 0
O 0.003030062	0.7289900306157597	0.03592851828506317	 0 0 0
O 0.496969985	0.228990001	0.03592851828506317	 0 0 0
O 0.503030015	0.7710099976157597	0.9640714754321854	 0 0 0
O 0.003030062	0.271009968	0.5359285897224857	 0 0 0
O 0.996970018	0.7289900306157597	0.46407144243218545	 0 0 0
O 0.7140714418676579	0.245409992	0.7454000084098564	 0 0 0
O 0.2859285259776708	0.7545900836157597	0.254599993	 0 0 0
O 0.7859286213126293	0.254590008	0.245399958	 0 0 0
O 0.21407145843218545	0.7454100066157597	0.7545999284098563	 0 0 0
O 0.2859285259776708	0.245409992	0.7545999284098563	 0 0 0
O 0.7140714418676579	0.7545900836157597	0.245399958	 0 0 0
O 0.21407145843218545	0.254590008	0.254599993	 0 0 0
O 0.7859286213126293	0.7454100066157597	0.7454000084098564	 0 0 0

K_POINTS automatic
6 6 6 0 0 0
