
&CONTROL
    calculation   = 'vc-relax'
    restart_mode  = 'from_scratch'
    prefix        = 'Landau_33'
    pseudo_dir    = '/cluster/scratch/mnoe/QE/pps'
    outdir        = './'
    forc_conv_thr = 1.0d-7
    etot_conv_thr = 1.0d-7

/
&SYSTEM
    ibrav       = 0
    nat         = 32
    ntyp        = 2
    ecutwfc     = 120
    occupations = 'smearing'
    degauss     = 7.35d-4
    tot_charge  = -0.0
/
&ELECTRONS
    conv_thr    = 1.0d-8
    diagonalization = 'david'
/


&IONS
ion_dynamics = 'bfgs'
/

&CELL
cell_dynamics = 'bfgs'
cell_dofree = 'all'
/
CELL_PARAMETERS angstrom
        7.3236460686         0.0000000000         0.0000000000
        0.0000000000         7.7495899200         0.0000000000
        0.0000000000         0.0000000000         7.3236460686

ATOMIC_SPECIES
W 183.84 W_ONCV_LDA-4.0.upf
O 15.9994 O_ONCV_LDA-3.0.upf

ATOMIC_POSITIONS crystal
W 0.26431	0.27833830449120905	-0.984949975	 0 0 0
W 0.7349499561734402	0.7216616955087909	-0.985689968	 0 0 0
W 0.23569	0.22166171168545087	-0.484950007	 0 0 0
W 0.7650499741734401	0.7783383409676687	-0.48569	 0 0 0
W 0.7356899491734401	0.27833830449120905	-0.515049993	 0 0 0
W 0.265049993	0.7216616955087909	-0.51431	 0 0 0
W 0.7643099811734402	0.22166171168545087	-1.0150499929999999	 0 0 0
W 0.234950007	0.7783383409676687	-1.01431	 0 0 0
O 0.280489989	0.007365117571015965	-0.969659976	 0 0 0
O 0.7196599571734401	0.9926348707191243	-0.969510011	 0 0 0
O 0.219510011	0.49263490719558395	-0.46965999199999997	 0 0 0
O 0.7803399731734402	0.5073651292808757	-0.469510011	 0 0 0
O 0.7195099921734401	0.007365117571015965	-0.530340024	 0 0 0
O 0.280340024	0.9926348707191243	-0.530489989	 0 0 0
O 0.7804899381734401	0.49263490719558395	-1.030339992	 0 0 0
O 0.219659992	0.5073651292808757	-1.030489957	 0 0 0
O 0.49363996	0.286419977	-0.5419297749417766	 0 0 0
O 0.504159986	0.7242200466498999	-0.4580701702284436	 0 0 0
O 0.006359994	0.213579992	-1.0419297749417766	 0 0 0
O 0.995839981	0.7757799886498998	-0.958070226004703	 0 0 0
O 0.506360007	0.286419977	-0.958070226004703	 0 0 0
O 0.495840014	0.7242200466498999	-1.0419297749417766	 0 0 0
O 0.993639993	0.213579992	-0.4580701702284436	 0 0 0
O 0.004159987	0.7757799886498998	-0.5419297749417766	 0 0 0
O 0.7080701730550034	0.224220014	-0.25416000582655984	 0 0 0
O 0.2919297561152168	0.7135800406498999	-0.756360007	 0 0 0
O 0.7919298325981162	0.275780001	-0.754159986	 0 0 0
O 0.20807020905822327	0.7864199946498999	-0.25636001282655985	 0 0 0
O 0.2919297561152168	0.224220014	-1.24583999982656	 0 0 0
O 0.7080701730550034	0.7135800406498999	-0.74363996	 0 0 0
O 0.20807020905822327	0.275780001	-0.745840014	 0 0 0
O 0.7919298325981162	0.7864199946498999	-1.2436400118265598	 0 0 0

K_POINTS automatic
6 6 6 0 0 0
