&CONTROL
    calculation   = 'scf'
    restart_mode  = 'from_scratch'
    prefix        = 'Landau_1'
    pseudo_dir    = '/cluster/scratch/mnoe/QE/pps'
    outdir        = './'
/
&SYSTEM
    ibrav       = 0
    nat         = 32
    ntyp        = 2
    ecutwfc     = 120
    occupations = 'smearing'
    degauss     = 7.35d-4
    tot_charge  = -1.0
/
&ELECTRONS
    conv_thr    = 1.0d-8
    diagonalization = 'david'
/

CELL_PARAMETERS angstrom
   7.328619231   0.000000000   0.000000000
   0.000000000   7.745046782   0.000000000
   0.000000000   0.000000000   7.328700166

ATOMIC_SPECIES
W 183.84 W_ONCV_LDA-4.0.upf
O 15.9994 O_ONCV_LDA-3.0.upf

ATOMIC_POSITIONS crystal
W 0.2484933255310648	0.28156530172053146	0.0002575320470699872	
W 0.7503433242132891	0.7184346982794685	-0.0014894669029300153	
W 0.2515066744689352	0.2184347133773767	0.5002575319810448	
W 0.7496566734194489	0.7815652737556841	0.4985105308810448	
W 0.7515066717194488	0.28156530172053146	0.49974246801895517	
W 0.24965667446893522	0.7184346982794685	0.5014894691189552	
W 0.7484933259132891	0.2184347133773767	-0.0002575308970699901	
W 0.2503433255310648	0.7815652737556841	0.0014894680529300125	
O 0.2481127040180429	0.008239714631682177	-0.0008648775720849708	
O 0.7515257013015125	-0.008239693687753307	-0.0014078779220849688	
O 0.2518872940832024	0.4917602783473993	0.4991351200291603	
O 0.7484742953323575	0.5082396936877533	0.4985921209791603	
O 0.7518872917323576	0.008239714631682177	0.5008648788535693	
O 0.24847429358320236	-0.008239693687753307	0.5014078779035693	
O 0.7481127049015125	0.4917602783473993	0.0008648772220849728	
O 0.2515257045180429	0.5082396936877533	0.0014078775720849708	
O 0.5005083771729906	0.24799512174541186	0.4502606066129338	
O 0.5000023763729906	0.7514961093634681	0.5497393636180351	
O -0.0005083766587767203	0.25200487675458816	0.9502606396129338	
O -2.3767087767196673e-06	0.7485038686048079	0.049739406645637994	
O 0.4994916228270094	0.24799512174541186	0.049739406645637994	
O 0.4999976236270094	0.7514961093634681	0.9502606396129338	
O 0.0005083746729906112	0.25200487675458816	0.5497393636180351	
O 2.3747229906104965e-06	0.7485038686048079	0.4502606066129338	
O 0.7002606379484952	0.2507836779650862	0.749784976226098	
O 0.29973939182053577	0.7515476680320103	0.25055197529387363	
O 0.7997393651845656	0.24921632103604582	0.2497849799438736	
O 0.20026062261293381	0.74845230995297	0.7505519748260979	
O 0.29973939182053577	0.2507836779650862	0.750215023404376	
O 0.7002606379484952	0.7515476680320103	0.2494480279561264	
O 0.20026062261293381	0.24921632103604582	0.2502150233061264	
O 0.7997393651845656	0.74845230995297	0.7494480248043759	

K_POINTS automatic
6 6 6 0 0 0
