
&CONTROL
    calculation   = 'vc-relax'
    restart_mode  = 'from_scratch'
    prefix        = 'Landau_39'
    pseudo_dir    = '/cluster/scratch/mnoe/QE/pps'
    outdir        = './'
    forc_conv_thr = 1.0d-7
    etot_conv_thr = 1.0d-7

/
&SYSTEM
    ibrav       = 0
    nat         = 32
    ntyp        = 2
    ecutwfc     = 120
    occupations = 'smearing'
    degauss     = 7.35d-4
    tot_charge  = -0.0
/
&ELECTRONS
    conv_thr    = 1.0d-8
    diagonalization = 'david'
/


&IONS
ion_dynamics = 'bfgs'
/

&CELL
cell_dynamics = 'bfgs'
cell_dofree = 'all'
/
CELL_PARAMETERS angstrom
        7.3236460686         0.0000000000         0.0000000000
        0.0000000000         7.7495899200         0.0000000000
        0.0000000000         0.0000000000         7.3236460686

ATOMIC_SPECIES
W 183.84 W_ONCV_LDA-4.0.upf
O 15.9994 O_ONCV_LDA-3.0.upf

ATOMIC_POSITIONS crystal
W 0.25	0.26633869674793964	0.0	 0 0 0
W 0.7499999174940872	0.7336613032520604	0.0	 0 0 0
W 0.25	0.23366132340867962	0.5	 0 0 0
W 0.7499999174940872	0.7663388256031458	0.5	 0 0 0
W 0.7499999174940872	0.26633869674793964	0.5	 0 0 0
W 0.25	0.7336613032520604	0.5	 0 0 0
W 0.7499999174940872	0.23366132340867962	0.0	 0 0 0
W 0.25	0.7663388256031458	0.0	 0 0 0
O 0.25	0.004091535870263115	0.0	 0 0 0
O 0.7499999174940872	0.9959083788407262	0.0	 0 0 0
O 0.25	0.4959085076959325	0.5	 0 0 0
O 0.7499999174940872	0.5040916211592738	0.5	 0 0 0
O 0.7499999174940872	0.004091535870263115	0.5	 0 0 0
O 0.25	0.9959083788407262	0.5	 0 0 0
O 0.7499999174940872	0.4959085076959325	0.0	 0 0 0
O 0.25	0.5040916211592738	0.0	 0 0 0
O 0.5	0.25	0.4874926517168678	 0 0 0
O 0.5	0.7500000623492934	0.5125074854515772	 0 0 0
O 0.0	0.25	0.9874926847168678	 0 0 0
O 0.0	0.7500000623492934	0.012507219897784652	 0 0 0
O 0.5	0.25	0.012507219897784652	 0 0 0
O 0.5	0.7500000623492934	0.9874926847168678	 0 0 0
O 0.0	0.25	0.5125074854515772	 0 0 0
O 0.0	0.7500000623492934	0.4874926517168678	 0 0 0
O 0.7374925970543356	0.25	0.7499999174940872	 0 0 0
O 0.2625072657772191	0.7500000623492934	0.25	 0 0 0
O 0.76250756795749	0.25	0.25	 0 0 0
O 0.2374926677168678	0.7500000623492934	0.7499999174940872	 0 0 0
O 0.2625072657772191	0.25	0.7499999174940872	 0 0 0
O 0.7374925970543356	0.7500000623492934	0.25	 0 0 0
O 0.2374926677168678	0.25	0.25	 0 0 0
O 0.76250756795749	0.7500000623492934	0.7499999174940872	 0 0 0

K_POINTS automatic
6 6 6 0 0 0
