&CONTROL
    calculation   = 'scf'
    restart_mode  = 'from_scratch'
    prefix        = 'chempot_8'
    pseudo_dir    = '/cluster/scratch/mnoe/QE/pps'
    outdir        = './'
/
&SYSTEM
    ibrav       = 0
    nat         = 32
    ntyp        = 2
    ecutwfc     = 120
    occupations = 'smearing'
    degauss     = 7.35d-4
    tot_charge  = -.80
/
&ELECTRONS
    conv_thr    = 1.0d-8
    diagonalization = 'david'
/
CELL_PARAMETERS angstrom
7.38188420840152305956 0 0
0 7.73519039079692314682 0
0 0 7.37472329617998459063

ATOMIC_SPECIES
W 183.84 W_ONCV_LDA-4.0.upf
O 15.9994 O_ONCV_LDA-3.0.upf

ATOMIC_POSITIONS crystal
W                      0.250000000         0.281860003         0.000000000
W                      0.750000000         0.718139997         0.000000000
W                      0.250000000         0.218140012         0.500000000
W                      0.750000000         0.781859972         0.500000000
W                     0.750000000         0.281860003         0.500000000
W                     0.250000000         0.718139997         0.500000000
W                     0.750000000         0.218140012         0.000000000
W                     0.250000000         0.781859972         0.000000000
O                      0.250000000         0.008320000         0.000000000
O                      0.750000000         0.991680023         0.000000000
O                      0.250000000         0.491679992         0.500000000
O                      0.750000000         0.508319977         0.500000000
O                      0.750000000         0.008320000         0.500000000
O                      0.250000000         0.991680023         0.500000000
O                      0.750000000         0.491679992         0.000000000
O                      0.250000000         0.508319977         0.000000000
O               0.500000000         0.250000000         0.449540004
O               0.500000000         0.749999985         0.550459963
O              -0.000000000         0.250000000         0.949540037
O              -0.000000000         0.749999985         0.050460012
O              0.500000000         0.250000000         0.050460012
O              0.500000000         0.749999985         0.949540037
O             -0.000000000         0.250000000         0.550459963
O             -0.000000000         0.749999985         0.449540004
O              0.699540037         0.250000000         0.750000000
O              0.300459996         0.749999985         0.250000000
O              0.800459963         0.250000000         0.250000000
O              0.199540020         0.749999985         0.750000000
O              0.300459996         0.250000000         0.750000000
O              0.699540037         0.749999985         0.250000000
O              0.199540020         0.250000000         0.250000000
O              0.800459963         0.749999985         0.750000000

K_POINTS automatic
6 6 6 0 0 0
