
&CONTROL
    calculation   = 'vc-relax'
    restart_mode  = 'from_scratch'
    prefix        = 'Landau_5'
    pseudo_dir    = '/cluster/scratch/mnoe/QE/pps'
    outdir        = './'
    forc_conv_thr = 1.0d-7
    etot_conv_thr = 1.0d-7

/
&SYSTEM
    ibrav       = 0
    nat         = 32
    ntyp        = 2
    ecutwfc     = 120
    occupations = 'smearing'
    degauss     = 7.35d-4
    tot_charge  = -0.0
/
&ELECTRONS
    conv_thr    = 1.0d-8
    diagonalization = 'david'
/


&IONS
ion_dynamics = 'bfgs'
/

&CELL
cell_dynamics = 'bfgs'
cell_dofree = 'all'
/
CELL_PARAMETERS angstrom
        7.3236460686         0.0000000000         0.0000000000
        0.0000000000         7.3236460686         0.0000000000
        0.0000000000         0.0000000000         7.7495899200

ATOMIC_SPECIES
W 183.84 W_ONCV_LDA-4.0.upf
O 15.9994 O_ONCV_LDA-3.0.upf

ATOMIC_POSITIONS crystal
W 0.247829998         0.247719999         0.218119991 0 0 0
W 0.752169985         0.752279968         0.218119991 0 0 0
W 0.247719999         0.752169985         0.781880024 0 0 0
W 0.752279968         0.247829998         0.781880024 0 0 0
W 0.252170002         0.747719999         0.281880024 0 0 0
W 0.747830047         0.252280001         0.281880024 0 0 0
W 0.252280001         0.252170002         0.718119976 0 0 0
W 0.747719999         0.747830047         0.718119976 0 0 0
O 0.245379992         0.245400000         0.491670026 0 0 0
O 0.754620024         0.754599968         0.491670026 0 0 0
O 0.245400000         0.754620024         0.508329974 0 0 0
O 0.754599968         0.245379992         0.508329974 0 0 0
O 0.254620008         0.745400000         0.008329987 0 0 0
O 0.745380009         0.254599984         0.008329987 0 0 0
O 0.254599984         0.254620008         0.991670026 0 0 0
O 0.745400000         0.745380009         0.991670026 0 0 0
O 0.199410008         0.499370023         0.253910005 0 0 0
O 0.800589976         0.500630010         0.253910005 0 0 0
O 0.499370023         0.800589976         0.746089995 0 0 0
O 0.500630010         0.199410008         0.746089995 0 0 0
O 0.300589976         0.999369990         0.246089995 0 0 0
O 0.699409992         0.000629991         0.246089995 0 0 0
O 0.000629991         0.300589976         0.753910005 0 0 0
O 0.999369990         0.699409992         0.753910005 0 0 0
O 0.999039976         0.199410008         0.244479993 0 0 0
O 0.000959992         0.800589976         0.244479993 0 0 0
O 0.199410008         0.000959992         0.755520007 0 0 0
O 0.800589976         0.999039976         0.755520007 0 0 0
O 0.500959992         0.699409992         0.255519992 0 0 0
O 0.499040008         0.300589976         0.255519992 0 0 0
O 0.300589976         0.500959992         0.744479993 0 0 0
O 0.699409992         0.499040008         0.744479993 0 0 0

K_POINTS automatic
6 6 6 0 0 0
