
&CONTROL
    calculation   = 'vc-relax'
    restart_mode  = 'from_scratch'
    prefix        = 'Landau_9'
    pseudo_dir    = '/cluster/scratch/mnoe/QE/pps'
    outdir        = './'
    forc_conv_thr = 1.0d-7
    etot_conv_thr = 1.0d-7

/
&SYSTEM
    ibrav       = 0
    nat         = 32
    ntyp        = 2
    ecutwfc     = 120
    occupations = 'smearing'
    degauss     = 7.35d-4
    tot_charge  = -0.0
/
&ELECTRONS
    conv_thr    = 1.0d-8
    diagonalization = 'david'
/


&IONS
ion_dynamics = 'bfgs'
/

&CELL
cell_dynamics = 'bfgs'
cell_dofree = 'all'
/
CELL_PARAMETERS angstrom
        7.3236460686         0.0000000000         0.0000000000
        0.0000000000         7.7495899200         0.0000000000
        0.0000000000         0.0000000000         7.3236460686

ATOMIC_SPECIES
W 183.84 W_ONCV_LDA-4.0.upf
O 15.9994 O_ONCV_LDA-3.0.upf

ATOMIC_POSITIONS crystal
W 0.25	0.2782781630956784	0.0	 0 0 0
W 0.749999980960174	0.7217218369043216	0.0	 0 0 0
W 0.25	0.22172185309431067	0.5	 0 0 0
W 0.749999980960174	0.7782781689853414	0.5	 0 0 0
W 0.749999980960174	0.2782781630956784	0.5	 0 0 0
W 0.25	0.7217218369043216	0.5	 0 0 0
W 0.749999980960174	0.22172185309431067	0.0	 0 0 0
W 0.25	0.7782781689853414	0.0	 0 0 0
O 0.25	0.007344200585445333	0.0	 0 0 0
O 0.749999980960174	0.992655797424783	0.0	 0 0 0
O 0.25	0.492655803314446	0.5	 0 0 0
O 0.749999980960174	0.507344202575217	0.5	 0 0 0
O 0.749999980960174	0.007344200585445333	0.5	 0 0 0
O 0.25	0.992655797424783	0.5	 0 0 0
O 0.749999980960174	0.492655803314446	0.0	 0 0 0
O 0.25	0.507344202575217	0.0	 0 0 0
O 0.5	0.25	0.4582983073192772	 0 0 0
O 0.5	0.7500000028498369	0.541701698950364	 0 0 0
O 0.0	0.25	0.9582983403192772	 0 0 0
O 0.0	0.7500000028498369	0.04170167536102723	 0 0 0
O 0.5	0.25	0.04170167536102723	 0 0 0
O 0.5	0.7500000028498369	0.9582983403192772	 0 0 0
O 0.0	0.25	0.541701698950364	 0 0 0
O 0.0	0.7500000028498369	0.4582983073192772	 0 0 0
O 0.708298320089462	0.25	0.749999980960174	 0 0 0
O 0.2917016736408967	0.7500000028498369	0.25	 0 0 0
O 0.79170171799019	0.25	0.25	 0 0 0
O 0.2082983233192772	0.7500000028498369	0.749999980960174	 0 0 0
O 0.2917016736408967	0.25	0.749999980960174	 0 0 0
O 0.708298320089462	0.7500000028498369	0.25	 0 0 0
O 0.2082983233192772	0.25	0.25	 0 0 0
O 0.79170171799019	0.7500000028498369	0.749999980960174	 0 0 0

K_POINTS automatic
6 6 6 0 0 0
