
&CONTROL
    calculation   = 'vc-relax'
    restart_mode  = 'from_scratch'
    prefix        = 'Landau_9'
    pseudo_dir    = '/cluster/scratch/mnoe/QE/pps'
    outdir        = './'
    forc_conv_thr = 1.0d-7
    etot_conv_thr = 1.0d-7

/
&SYSTEM
    ibrav       = 0
    nat         = 16
    ntyp        = 2
    ecutwfc     = 120
    occupations = 'smearing'
    degauss     = 7.35d-4
    tot_charge  = -0.0
/
&ELECTRONS
    conv_thr    = 1.0d-8
    diagonalization = 'david'
/


&IONS
ion_dynamics = 'bfgs'
/

&CELL
cell_dynamics = 'bfgs'
cell_dofree = 'all'
/
CELL_PARAMETERS angstrom
        5.177959919             0.0             0.0
        0.0             5.177959919             0.0
        0.0             0.0            7.7496299744

ATOMIC_SPECIES
W 183.84 W_ONCV_LDA-4.0.upf
O 15.9994 O_ONCV_LDA-3.0.upf

ATOMIC_POSITIONS crystal
W       0.24999999999997707	0.24999999999995917	0.2150645243492697	 0 0 0
W       0.7500000229999799	0.7500000229999925	0.7849354906498602	 0 0 0
W       0.7500000230000067	0.7500000230000174	0.2849354906507298	 0 0 0
W       0.24999999999997288	0.2500000000000129	0.7150645093501399	 0 0 0
O      0.24999999999990263	0.24999999999996916	0.4858878236365869	 0 0 0
O      0.7500000229999974	0.7500000230001161	0.5141121763647507	 0 0 0
O      0.7500000229999538	0.7500000230000068	0.01411218936341493	 0 0 0
O      0.24999999999991668	0.2500000000000194	0.9858878236352463	 0 0 0
O       0.46520869517042795	0.534791258829546	0.2500000000000151	 0 0 0
O       0.5347913048391787	0.4652087411608322	0.7499999999999994	 0 0 0
O       0.03479128782966809	0.9652087411702822	0.25000000000000144	 0 0 0
O       0.9652086491609527	0.03479132183908332	0.7500000000000735	 0 0 0
O       0.9652087411703403	0.46520869517032687	0.2500000000000565	 0 0 0
O       0.03479132183917154	0.5347913048391701	0.7499999999999911	 0 0 0
O       0.5347912588296168	0.03479128782963494	0.24999999999995734	 0 0 0
O       0.46520874116095895	0.9652086491609353	0.7499999999999083	 0 0 0

K_POINTS automatic
9 9 6 0 0 0
