
&CONTROL
    calculation   = 'vc-relax'
    restart_mode  = 'from_scratch'
    prefix        = 'Landau_35'
    pseudo_dir    = '/cluster/scratch/mnoe/QE/pps'
    outdir        = './'
    forc_conv_thr = 1.0d-7
    etot_conv_thr = 1.0d-7

/
&SYSTEM
    ibrav       = 0
    nat         = 32
    ntyp        = 2
    ecutwfc     = 120
    occupations = 'smearing'
    degauss     = 7.35d-4
    tot_charge  = -0.0
/
&ELECTRONS
    conv_thr    = 1.0d-8
    diagonalization = 'david'
/


&IONS
ion_dynamics = 'bfgs'
/

&CELL
cell_dynamics = 'bfgs'
cell_dofree = 'all'
/
CELL_PARAMETERS angstrom
        7.3236460686         0.0000000000         0.0000000000
        0.0000000000         7.7495899200         0.0000000000
        0.0000000000         0.0000000000         7.3236460686

ATOMIC_SPECIES
W 183.84 W_ONCV_LDA-4.0.upf
O 15.9994 O_ONCV_LDA-3.0.upf

ATOMIC_POSITIONS crystal
W 0.233809991	0.28804913862375686	0.015289999	 0 0 0
W 0.766190009	0.7119508613762432	0.984709968	 0 0 0
W 0.266189992	0.21195086817508305	0.515290032	 0 0 0
W 0.733809991	0.7880491076237568	0.484710001	 0 0 0
W 0.766190009	0.28804913862375686	0.484710001	 0 0 0
W 0.233809991	0.7119508613762432	0.515290032	 0 0 0
W 0.733809991	0.21195086817508305	0.984709968	 0 0 0
W 0.266189992	0.7880491076237568	0.015289999	 0 0 0
O 0.220139993	0.02003125722483155	0.00475	 0 0 0
O 0.779859991	0.9799687805372567	0.995249957	 0 0 0
O 0.279860024	0.47996873258819245	0.504750011	 0 0 0
O 0.720140009	0.5200312533608719	0.495249989	 0 0 0
O 0.779859991	0.02003125722483155	0.495249989	 0 0 0
O 0.220139993	0.9799687805372567	0.504750011	 0 0 0
O 0.720140009	0.47996873258819245	0.995249957	 0 0 0
O 0.279860024	0.5200312533608719	0.00475	 0 0 0
O 0.504419991	0.219369998	0.48153001785084826	 0 0 0
O 0.495580009	0.780630002	0.5184699846875124	 0 0 0
O 0.995580009	0.280630002	0.9815300246071358	 0 0 0
O 0.004420042	0.719370029	0.01847002220588817	 0 0 0
O 0.495580009	0.219369998	0.01847002220588817	 0 0 0
O 0.504419991	0.780630002	0.9815300246071358	 0 0 0
O 0.004420042	0.280630002	0.5184699846875124	 0 0 0
O 0.995580009	0.719370029	0.48153001785084826	 0 0 0
O 0.7315300688934006	0.24331	0.743290024	 0 0 0
O 0.2684700083928642	0.756690031	0.256709993	 0 0 0
O 0.76846996664496	0.25669	0.243289942	 0 0 0
O 0.23153003439759223	0.74331	0.756709976	 0 0 0
O 0.2684700083928642	0.24331	0.756709976	 0 0 0
O 0.7315300688934006	0.756690031	0.243289942	 0 0 0
O 0.23153003439759223	0.25669	0.256709993	 0 0 0
O 0.76846996664496	0.74331	0.743290024	 0 0 0

K_POINTS automatic
6 6 6 0 0 0
