&CONTROL
    calculation   = 'scf'
    restart_mode  = 'from_scratch'
    prefix        = 'Landau_5'
    pseudo_dir    = '/cluster/scratch/mnoe/QE/pps'
    outdir        = './'
/
&SYSTEM
    ibrav       = 0
    nat         = 32
    ntyp        = 2
    ecutwfc     = 120
    occupations = 'smearing'
    degauss     = 7.35d-4
    tot_charge  = -1.0
/
&ELECTRONS
    conv_thr    = 1.0d-8
    diagonalization = 'david'
/

CELL_PARAMETERS angstrom
   7.386530642   0.000000000   0.000000000
   0.000000000   7.700452462   0.000000000
   0.000000000   0.000000000   7.387243524

ATOMIC_SPECIES
W 183.84 W_ONCV_LDA-4.0.upf
O 15.9994 O_ONCV_LDA-3.0.upf

ATOMIC_POSITIONS crystal
W 0.24696221504137264	0.2779849881418522	0.0014116944860545757	
W 0.7515831898980805	0.7220150118581479	-0.002952022009550412	
W 0.2530377849586274	0.22201502814553795	0.5014116950272525	
W 0.748416769862937	0.777984997050948	0.4970479731613005	
W 0.7530377618209181	0.2779849881418522	0.49858830497274753	
W 0.24841678875432557	0.7220150118581479	0.5029520268386994	
W 0.7469621979400994	0.22201502814553795	-0.0014116916135434284	
W 0.2515832112456744	0.777984997050948	0.0029520248820615594	
O 0.24551138721502025	0.007264331033497869	-0.0007426881049562999	
O 0.7540364772822563	-0.007264335068691818	-0.0020990138110560485	
O 0.2544886094129017	0.492735673840404	0.4992573072740477	
O 0.7459634812298435	0.5072643350686918	0.4979009848151345	
O 0.7544885857756249	0.007264331033497869	0.5007426892706126	
O 0.2459634946259935	-0.007264335068691818	0.5020990117295259	
O 0.7455113727364749	0.492735673840404	0.0007426872307137799	
O 0.2540365020019284	0.5072643350686918	0.0020990129368135286	
O 0.5009512594916457	0.24530948096079996	0.4590151777656997	
O 0.49968735258560587	0.7540544106068728	0.5409848317181765	
O -0.0009512609070864079	0.25469051529244635	0.9590152107656997	
O 0.0003126438757929973	0.7459456080478062	0.040984802187374964	
O 0.49904874050835435	0.24530948096079996	0.040984802187374964	
O 0.5003126474143942	0.7540544106068728	0.9590152107656997	
O 0.0009512532470562121	0.25469051529244635	0.5409848317181765	
O -0.0003126515358231932	0.7459456080478062	0.4590151777656997	
O 0.7090151888800665	0.25050331262728653	0.7492527136159861	
O 0.2909848016360572	0.7524116705975584	0.25116856939139526	
O 0.7909848523164195	0.2494966861237958	0.249252740958386	
O 0.20901519376569974	0.7475883481403818	0.7511685501669617	
O 0.2909848016360572	0.25050331262728653	0.7507472486428668	
O 0.7090151888800665	0.7524116705975584	0.24883143872657104	
O 0.20901519376569974	0.2494966861237958	0.2507472671595803	
O 0.7909848523164195	0.7475883481403818	0.7488314120918912	

K_POINTS automatic
6 6 6 0 0 0
