
&CONTROL
    calculation   = 'vc-relax'
    restart_mode  = 'from_scratch'
    prefix        = 'Landau_2'
    pseudo_dir    = '/cluster/scratch/mnoe/QE/pps'
    outdir        = './'
    forc_conv_thr = 1.0d-7
    etot_conv_thr = 1.0d-7

/
&SYSTEM
    ibrav       = 0
    nat         = 32
    ntyp        = 2
    ecutwfc     = 120
    occupations = 'smearing'
    degauss     = 7.35d-4
    tot_charge  = -0.0
/
&ELECTRONS
    conv_thr    = 1.0d-8
    diagonalization = 'david'
/


&IONS
ion_dynamics = 'bfgs'
/

&CELL
cell_dynamics = 'bfgs'
cell_dofree = 'all'
/
CELL_PARAMETERS angstrom
        7.3236460686         0.0000000000         0.0000000000
        0.0000000000         7.7495899200         0.0000000000
        0.0000000000         0.0000000000         7.3236460686

ATOMIC_SPECIES
W 183.84 W_ONCV_LDA-4.0.upf
O 15.9994 O_ONCV_LDA-3.0.upf

ATOMIC_POSITIONS crystal
W 0.249080001	0.2813647654699083	0.00087	 0 0 0
W 0.750919963367488	0.7186352345300917	0.99913004	 0 0 0
W 0.250919999	0.2186352496946237	0.500869993	 0 0 0
W 0.749080031367488	0.7813647395704002	0.499130007	 0 0 0
W 0.750919963367488	0.2813647654699083	0.499130007	 0 0 0
W 0.249080001	0.7186352345300917	0.500869993	 0 0 0
W 0.749080031367488	0.2186352496946237	0.99913004	 0 0 0
W 0.250919999	0.7813647395704002	0.00087	 0 0 0
O 0.248289999	0.008185082609821301	0.00027	 0 0 0
O 0.751709966367488	0.9918149369350068	0.999729981	 0 0 0
O 0.251710001	0.4918149110354987	0.500270019	 0 0 0
O 0.748290028367488	0.5081850630649932	0.499729981	 0 0 0
O 0.751709966367488	0.008185082609821301	0.499729981	 0 0 0
O 0.248289999	0.9918149369350068	0.500270019	 0 0 0
O 0.748290028367488	0.4918149110354987	0.999729981	 0 0 0
O 0.251710001	0.5081850630649932	0.00027	 0 0 0
O 0.500249997	0.248249988	0.4507509572026821	 0 0 0
O 0.499750003	0.75174996746798	0.5492490152268739	 0 0 0
O 0.999750035	0.251749996	0.9507509902026822	 0 0 0
O 0.000249982	0.7482500064679799	0.04924905419042193	 0 0 0
O 0.499750003	0.248249988	0.04924905419042193	 0 0 0
O 0.500249997	0.75174996746798	0.9507509902026822	 0 0 0
O 0.000249982	0.251749996	0.5492490152268739	 0 0 0
O 0.999750035	0.7482500064679799	0.4507509572026821	 0 0 0
O 0.7007509874056381	0.249620007	0.749620004367488	 0 0 0
O 0.2992490401648059	0.75038001146798	0.250379977	 0 0 0
O 0.7992490178593857	0.250379978	0.249619958	 0 0 0
O 0.20075097320268212	0.7496200244679799	0.750379990367488	 0 0 0
O 0.2992490401648059	0.249620007	0.750379990367488	 0 0 0
O 0.7007509874056381	0.75038001146798	0.249619958	 0 0 0
O 0.20075097320268212	0.250379978	0.250379977	 0 0 0
O 0.7992490178593857	0.7496200244679799	0.749620004367488	 0 0 0

K_POINTS automatic
6 6 6 0 0 0
