&CONTROL
    calculation   = 'scf'
    restart_mode  = 'from_scratch'
    prefix        = 'Landau_9'
    pseudo_dir    = '/cluster/scratch/mnoe/QE/pps'
    outdir        = './'
/
&SYSTEM
    ibrav       = 0
    nat         = 32
    ntyp        = 2
    ecutwfc     = 120
    occupations = 'smearing'
    degauss     = 7.35d-4
    tot_charge  = -1.0
/
&ELECTRONS
    conv_thr    = 1.0d-8
    diagonalization = 'david'
/

CELL_PARAMETERS angstrom
   7.430301470   0.000000000   0.000000000
   0.000000000   7.662085663   0.000000000
   0.000000000   0.000000000   7.432587908

ATOMIC_SPECIES
W 183.84 W_ONCV_LDA-4.0.upf
O 15.9994 O_ONCV_LDA-3.0.upf

ATOMIC_POSITIONS crystal
W 0.24584221215955251	0.2747912564574236	0.003926300417859759	
W 0.7541577464447581	0.7252087435425765	-0.003926295248718131	
W 0.2541577878404475	0.22520876089101502	0.5039263026653127	
W 0.7458421784052028	0.774791298259024	0.49607369733468737	
W 0.7541577464447581	0.2747912564574236	0.49607369733468737	
W 0.24584221215955251	0.7252087435425765	0.5039263026653127	
W 0.7458421784052028	0.22520876089101502	-0.003926295248718131	
W 0.2541577878404475	0.774791298259024	0.003926300417859759	
O 0.2423294403759073	0.006394263807949901	0.001220366917493507	
O 0.757670511036554	-0.006394290125163077	-0.0012203684907105188	
O 0.2576705560281681	0.49360575167643733	0.501220361074116	
O 0.7423294138134069	0.5063942901251631	0.49877963150928945	
O 0.757670511036554	0.006394263807949901	0.49877963150928945	
O 0.2423294403759073	-0.006394290125163077	0.501220361074116	
O 0.7423294138134069	0.49360575167643733	-0.0012203684907105188	
O 0.2576705560281681	0.5063942901251631	0.001220366917493507	
O 0.5011372129586469	0.24213166766830924	0.4668244801242063	
O 0.4988627870413531	0.757868355929451	0.5331755643742715	
O -0.0011372203752413963	0.2578683255893321	0.9668245131242063	
O 0.001137201721382433	0.7421316980084282	0.03317547011950944	
O 0.4988627870413531	0.24213166766830924	0.03317547011950944	
O 0.5011372129586469	0.757868355929451	0.9668245131242063	
O 0.001137201721382433	0.2578683255893321	0.5331755643742715	
O -0.0011372203752413963	0.7421316980084282	0.4668244801242063	
O 0.716824473200748	0.2482829464440301	0.7482761692072938	
O 0.28317548230077405	0.751717084120834	0.2517237932176866	
O 0.783175601949291	0.2517170535559699	0.24827622139075714	
O 0.2168244961242063	0.7482829700417903	0.751723755642667	
O 0.28317548230077405	0.2482829464440301	0.751723755642667	
O 0.716824473200748	0.751717084120834	0.24827622139075714	
O 0.2168244961242063	0.2517170535559699	0.2517237932176866	
O 0.783175601949291	0.7482829700417903	0.7482761692072938	

K_POINTS automatic
6 6 6 0 0 0
