
&CONTROL
    calculation   = 'vc-relax'
    restart_mode  = 'from_scratch'
    prefix        = 'Landau_8'
    pseudo_dir    = '/cluster/scratch/mnoe/QE/pps'
    outdir        = './'
    forc_conv_thr = 1.0d-7
    etot_conv_thr = 1.0d-7

/
&SYSTEM
    ibrav       = 0
    nat         = 32
    ntyp        = 2
    ecutwfc     = 120
    occupations = 'smearing'
    degauss     = 7.35d-4
    tot_charge  = -0.0
/
&ELECTRONS
    conv_thr    = 1.0d-8
    diagonalization = 'david'
/


&IONS
ion_dynamics = 'bfgs'
/

&CELL
cell_dynamics = 'bfgs'
cell_dofree = 'all'
/
CELL_PARAMETERS angstrom
        7.3236460686         0.0000000000         0.0000000000
        0.0000000000         7.7495899200         0.0000000000
        0.0000000000         0.0000000000         7.3236460686

ATOMIC_SPECIES
W 183.84 W_ONCV_LDA-4.0.upf
O 15.9994 O_ONCV_LDA-3.0.upf

ATOMIC_POSITIONS crystal
W 0.23736492977958315	0.2802761325246934	0.0014442883736298859	 0 0 0
W 0.7521649244490665	0.7197238674753066	-0.012531703226370134	 0 0 0
W 0.2626350702204169	0.21972388300151344	0.5014442872794034	 0 0 0
W 0.7478350656045036	0.7802761178371054	0.4874682784794033	 0 0 0
W 0.7626350520045037	0.2802761325246934	0.4985557127205967	 0 0 0
W 0.24783507022041687	0.7197238674753066	0.5125317215205967	 0 0 0
W 0.7373649380490664	0.21972388300151344	-0.0014442791736299088	 0 0 0
W 0.25216492977958316	0.7802761178371054	0.012531712426370111	 0 0 0
O 0.23472083681238595	0.007888506710567974	-0.008055398148764737	 0 0 0
O 0.7620248191930766	-0.007888494760911524	-0.012399400948764721	 0 0 0
O 0.26527914689882137	0.4921114905515004	0.4919445815624426	 0 0 0
O 0.7379751618706819	0.5078884947609115	0.48760058916244253	 0 0 0
O 0.765279133070682	0.007888506710567974	0.5080554100321236	 0 0 0
O 0.23797514289882135	-0.007888494760911524	0.5123994024321236	 0 0 0
O 0.7347208479930766	0.4921114905515004	0.008055395348764753	 0 0 0
O 0.262024840812386	0.5078884947609115	0.012399398148764737	 0 0 0
O 0.5043223941569155	0.2337065956587068	0.45341287895023047	 0 0 0
O 0.5002743877569155	0.7617145982467152	0.5465871054145951	 0 0 0
O -0.0043223878789904815	0.2662933923412932	0.9534129119502305	 0 0 0
O -0.00027438827899047653	0.7382854298187734	0.04658712231597808	 0 0 0
O 0.4956776058430845	0.2337065956587068	0.04658712231597808	 0 0 0
O 0.4997256122430845	0.7617145982467152	0.9534129119502305	 0 0 0
O 0.004322374156915501	0.2662933923412932	0.5465871054145951	 0 0 0
O 0.00027437455691549546	0.7382854298187734	0.45341287895023047	 0 0 0
O 0.7034129030047143	0.2574351015857761	0.7484482910143458	 0 0 0
O 0.2965871126304601	0.763547124763596	0.2545842783448625	 0 0 0
O 0.7965871138339045	0.24256488942441232	0.2484483155448625	 0 0 0
O 0.2034128949502305	0.7364529034022322	0.7545842798143458	 0 0 0
O 0.2965871126304601	0.2574351015857761	0.7515517170188474	 0 0 0
O 0.7034129030047143	0.763547124763596	0.24541574765513752	 0 0 0
O 0.2034128949502305	0.24256488942441232	0.2515517104551375	 0 0 0
O 0.7965871138339045	0.7364529034022322	0.7454157282188474	 0 0 0

K_POINTS automatic
6 6 6 0 0 0
