&CONTROL
    calculation   = 'scf'
    restart_mode  = 'from_scratch'
    prefix        = 'Landau_18'
    pseudo_dir    = '/cluster/scratch/mnoe/QE/pps'
    outdir        = './'
/
&SYSTEM
    ibrav       = 0
    nat         = 32
    ntyp        = 2
    ecutwfc     = 120
    occupations = 'smearing'
    degauss     = 7.35d-4
    tot_charge  = -0.2
/
&ELECTRONS
    conv_thr    = 1.0d-8
    diagonalization = 'david'
/

CELL_PARAMETERS angstrom
   7.420995125   0.000000000   0.000000000
   0.000000000   7.555767655   0.000000000
   0.000000000   0.000000000   7.459697814

ATOMIC_SPECIES
W 183.84 W_ONCV_LDA-4.0.upf
O 15.9994 O_ONCV_LDA-3.0.upf

ATOMIC_POSITIONS crystal
W 0.233349992	0.27472858256667937	0.01572	
W 0.7666499860918277	0.7252714174333207	0.984279969	
W 0.266650024	0.2252714348025813	0.515719998	
W 0.7333499380918276	0.7747286250137633	0.484280002	
W 0.7666499860918277	0.27472858256667937	0.484280002	
W 0.233349992	0.7252714174333207	0.515719998	
W 0.7333499380918276	0.2252714348025813	0.984279969	
W 0.266650024	0.7747286250137633	0.01572	
O 0.219290006	0.006377189581426741	0.00489	
O 0.7807099240918276	0.9936227836640971	0.995109966	
O 0.280709994	0.493622826111181	0.504890034	
O 0.7192900000918276	0.5063772163359029	0.495109999	
O 0.7807099240918276	0.006377189581426741	0.495109999	
O 0.219290006	0.9936227836640971	0.504890034	
O 0.7192900000918276	0.493622826111181	0.995109966	
O 0.280709994	0.5063772163359029	0.00489	
O 0.504549987	0.218490008	0.46697773011862254	
O 0.495450013	0.7815100115389116	0.5330223150669828	
O 0.995450046	0.281510007	0.9669777631186225	
O 0.00454998	0.7184900285389116	0.03302221954207579	
O 0.495450013	0.218490008	0.03302221954207579	
O 0.504549987	0.7815100115389116	0.9669777631186225	
O 0.00454998	0.281510007	0.5330223150669828	
O 0.995450046	0.7184900285389116	0.46697773011862254	
O 0.7169777228411894	0.243120003	0.7430999240918276	
O 0.283022231973205	0.7568800165389116	0.256900006	
O 0.7830223529751552	0.256879981	0.243099929	
O 0.21697774611862253	0.7431200235389116	0.7569000000918277	
O 0.283022231973205	0.243120003	0.7569000000918277	
O 0.7169777228411894	0.7568800165389116	0.243099929	
O 0.21697774611862253	0.256879981	0.256900006	
O 0.7830223529751552	0.7431200235389116	0.7430999240918276	

K_POINTS automatic
6 6 6 0 0 0
