
&CONTROL
calculation = 'scf'
restart_mode = 'from_scratch'
prefix = 'P4ncc_0'
pseudo_dir = '/cluster/scratch/mnoe/QE/pps'
outdir = './'
/
&SYSTEM
ibrav = 0
nat = 16
ntyp = 2
ecutwfc = 120
occupations = 'smearing'
smearing = 'gaussian'
degauss = 0.003674931
tot_charge = 0
noncolin = .false.
lspinorb = .false.
/
&ELECTRONS
conv_thr = 1.0d-10
diagonalization = 'david'
/

CELL_PARAMETERS angstrom
5.1779599190 0.0000000000 0.0000000000
0.0000000000 5.1779599190 0.0000000000
0.0000000000 0.0000000000 7.7496299744

ATOMIC_SPECIES
W 183.84 W_ONCV_LDA-4.0.upf
O 15.9994 O_ONCV_LDA-3.0.upf



ATOMIC_POSITIONS crystal
O .250000000 .250000000 .830959026
O .750000023 .750000023 .436814974
O .750000023 .750000023 -.063185013
O .250000000 .250000000 1.330959026
O .416923976 .574793978 .434291000
O .574794024 .416924022 .934291000
O .018104007 .973614022 .065709000
O .973613930 .018104041 .565709000
O .961533022 .474238976 -.032730000
O .075419041 .562713024 1.032730000
O .562712978 .075419007 .532730000
