&CONTROL
    calculation   = 'scf'
    restart_mode  = 'from_scratch'
    prefix        = 'Landau_35'
    pseudo_dir    = '/cluster/scratch/mnoe/QE/pps'
    outdir        = './'
/
&SYSTEM
    ibrav       = 0
    nat         = 32
    ntyp        = 2
    ecutwfc     = 120
    occupations = 'smearing'
    degauss     = 7.35d-4
    tot_charge  = -0.20
/
&ELECTRONS
    conv_thr    = 1.0d-8
    diagonalization = 'david'
/

CELL_PARAMETERS angstrom
   7.353540776   0.000000000   0.000000000
   0.000000000   7.524360331   0.000000000
   0.000000000   0.000000000   7.353540776

ATOMIC_SPECIES
W 183.84 W_ONCV_LDA-4.0.upf
O 15.9994 O_ONCV_LDA-3.0.upf

ATOMIC_POSITIONS crystal
W 0.28148000799999995	0.281860003	0.25090001	
W -0.250899977	0.718139997	-0.7185199590000001	
W 0.218519976	0.218140012	0.7508999599999999	
W 0.75090001	0.781859972	0.7814799909999999	
W 0.718519992	0.281860003	0.7490999899999999	
W 0.250899977	0.718139997	0.718519959	
W -0.21851995899999999	0.218140012	-0.7508999770000001	
W 0.24910000699999996	0.781859972	0.218519992	
O 0.2846100180000001	0.00832	0.27510999100000005	
O -0.275109948	0.991680023	-0.715389966	
O 0.21538996499999996	0.491679992	0.7751100129999999	
O 0.775109991	0.508319977	0.784610035	
O 0.715390009	0.00832	0.724890004	
O 0.27510999599999997	0.991680023	0.7153899819999999	
O -0.21538996599999993	0.491679992	-0.7751099480000001	
O 0.22488998700000007	0.508319977	0.215390009	
O 0.488870033	0.28732000199999996	0.6995400039999999	
O 0.497710015	0.7260599529999999	0.800459963	
O -0.988869951	0.21267999800000004	1.199540037	
O 0.002290016000000019	0.7739398949999999	0.300460012	
O 0.511129967	0.28732000199999996	0.300460012	
O 0.502289985	0.7260599529999999	1.199540037	
O -0.01113003500000008	0.21267999800000004	0.800459963	
O -1.002290002	0.7739398949999999	0.6995400039999999	
O 0.6995400369999999	0.22605999799999998	2.002289985	
O 0.300459996	0.712679922	0.4888700159999999	
O 0.800459963	0.273940002	0.502290067	
O 0.19954001999999996	0.7873199259999999	1.988870033	
O 0.300459996	0.22605999799999998	0.997710066	
O 0.699540037	0.712679922	0.511130049	
O 0.19954002	0.273940002	0.49770999799999993	
O 0.800459963	0.7873199259999999	1.011130018	

K_POINTS automatic
6 6 6 0 0 0
