
&CONTROL
    calculation   = 'vc-relax'
    restart_mode  = 'from_scratch'
    prefix        = 'Landau_34'
    pseudo_dir    = '/cluster/scratch/mnoe/QE/pps'
    outdir        = './'
    forc_conv_thr = 1.0d-7
    etot_conv_thr = 1.0d-7

/
&SYSTEM
    ibrav       = 0
    nat         = 32
    ntyp        = 2
    ecutwfc     = 120
    occupations = 'smearing'
    degauss     = 7.35d-4
    tot_charge  = -0.0
/
&ELECTRONS
    conv_thr    = 1.0d-8
    diagonalization = 'david'
/


&IONS
ion_dynamics = 'bfgs'
/

&CELL
cell_dynamics = 'bfgs'
cell_dofree = 'all'
/
CELL_PARAMETERS angstrom
        7.3236460686         0.0000000000         0.0000000000
        0.0000000000         7.7495899200         0.0000000000
        0.0000000000         0.0000000000         7.3236460686

ATOMIC_SPECIES
W 183.84 W_ONCV_LDA-4.0.upf
O 15.9994 O_ONCV_LDA-3.0.upf

ATOMIC_POSITIONS crystal
0.234280002	0.28493711533804	0.01485	 0 0 0
0.765720031	0.71506288466196	0.985149994	 0 0 0
0.265720015	0.21506289558451	0.514850006	 0 0 0
0.734279969	0.78493708433804	0.485149994	 0 0 0
0.765720031	0.28493711533804	0.485149994	 0 0 0
0.234280002	0.71506288466196	0.514850006	 0 0 0
0.734279969	0.21506289558451	0.985149994	 0 0 0
0.265720015	0.78493708433804	0.01485	 0 0 0
0.220989996	0.01414259887183	0.00462	 0 0 0
0.77901002	0.98585743146758	0.995379985	 0 0 0
0.279009988	0.48585739204085004	0.504620015	 0 0 0
0.72098998	0.51414258538588	0.495380018	 0 0 0
0.77901002	0.01414259887183	0.495380018	 0 0 0
0.220989996	0.98585743146758	0.504620015	 0 0 0
0.72098998	0.48585739204085004	0.995379985	 0 0 0
0.279009988	0.51414258538588	0.00462	 0 0 0
0.50429999	0.220240005	0.4654447881732	 0 0 0
0.49570001	0.779759995	0.53455519649575	 0 0 0
0.99570001	0.279759995	0.96544480812536	 0 0 0
0.004299998	0.720239974	0.03455523978732	 0 0 0
0.49570001	0.220240005	0.03455523978732	 0 0 0
0.50429999	0.779759995	0.96544480812536	 0 0 0
0.004299998	0.279759995	0.53455519649575	 0 0 0
0.99570001	0.720239974	0.4654447881732	 0 0 0
0.71544483014359	0.243499997	0.74348002	 0 0 0
0.28455522487464	0.756500019	0.25651998	 0 0 0
0.78455518752536	0.256500003	0.243479971	 0 0 0
0.21544480444503	0.743500012	0.75651998	 0 0 0
0.28455522487464	0.243499997	0.75651998	 0 0 0
0.71544483014359	0.756500019	0.243479971	 0 0 0
0.21544480444503	0.256500003	0.25651998	 0 0 0
0.78455518752536	0.743500012	0.74348002	 0 0 0

K_POINTS automatic
6 6 6 0 0 0
