
&CONTROL
    calculation   = 'vc-relax'
    restart_mode  = 'from_scratch'
    prefix        = 'Landau_24'
    pseudo_dir    = '/cluster/scratch/mnoe/QE/pps'
    outdir        = './'
    forc_conv_thr = 1.0d-7
    etot_conv_thr = 1.0d-7

/
&SYSTEM
    ibrav       = 0
    nat         = 32
    ntyp        = 2
    ecutwfc     = 120
    occupations = 'smearing'
    degauss     = 7.35d-4
    tot_charge  = -0.0
/
&ELECTRONS
    conv_thr    = 1.0d-8
    diagonalization = 'david'
/


&IONS
ion_dynamics = 'bfgs'
/

&CELL
cell_dynamics = 'bfgs'
cell_dofree = 'all'
/
CELL_PARAMETERS angstrom
        7.3236460686         0.0000000000         0.0000000000
        0.0000000000         7.7495899200         0.0000000000
        0.0000000000         0.0000000000         7.3236460686

ATOMIC_SPECIES
W 183.84 W_ONCV_LDA-4.0.upf
O 15.9994 O_ONCV_LDA-3.0.upf

ATOMIC_POSITIONS crystal
        0.238900000         0.281860003         0.010480000 0 0 0
        0.761100016         0.718139997         0.989520045 0 0 0
        0.261100000         0.218140012         0.510479988 0 0 0
        0.738899984         0.781859972         0.489520012 0 0 0
        0.761100016         0.281860003         0.489520012 0 0 0
        0.238900000         0.718139997         0.510479988 0 0 0
        0.738899984         0.218140012         0.989520045 0 0 0
        0.261100000         0.781859972         0.010480000 0 0 0
        0.229530007         0.008320000         0.003260000 0 0 0
        0.770470009         0.991680023         0.996739977 0 0 0
        0.270469993         0.491679992         0.503260023 0 0 0
        0.729529991         0.508319977         0.496740010 0 0 0
        0.770470009         0.008320000         0.496740010 0 0 0
        0.229530007         0.991680023         0.503260023 0 0 0
        0.729529991         0.491679992         0.996739977 0 0 0
        0.270469993         0.508319977         0.003260000 0 0 0
        0.503030015         0.228990001         0.449540004 0 0 0
        0.496969985         0.771009968         0.550459963 0 0 0
        0.996970018         0.271009968         0.949540037 0 0 0
        0.003030062         0.728990001         0.050460012 0 0 0
        0.496969985         0.228990001         0.050460012 0 0 0
        0.503030015         0.771009968         0.949540037 0 0 0
        0.003030062         0.271009968         0.550459963 0 0 0
        0.996970018         0.728990001         0.449540004 0 0 0
        0.699540037         0.245409992         0.745400040 0 0 0
        0.300459996         0.754590054         0.254599993 0 0 0
        0.800459963         0.254590008         0.245399958 0 0 0
        0.199540020         0.745409977         0.754599960 0 0 0
        0.300459996         0.245409992         0.754599960 0 0 0
        0.699540037         0.754590054         0.245399958 0 0 0
        0.199540020         0.254590008         0.254599993 0 0 0
        0.800459963         0.745409977         0.745400040 0 0 0

K_POINTS automatic
6 6 6 0 0 0
