
&CONTROL
    calculation   = 'vc-relax'
    restart_mode  = 'from_scratch'
    prefix        = 'Landau_30'
    pseudo_dir    = '/cluster/scratch/mnoe/QE/pps'
    outdir        = './'
    forc_conv_thr = 1.0d-7
    etot_conv_thr = 1.0d-7

/
&SYSTEM
    ibrav       = 0
    nat         = 32
    ntyp        = 2
    ecutwfc     = 120
    occupations = 'smearing'
    degauss     = 7.35d-4
    tot_charge  = -0.0
/
&ELECTRONS
    conv_thr    = 1.0d-8
    diagonalization = 'david'
/


&IONS
ion_dynamics = 'bfgs'
/

&CELL
cell_dynamics = 'bfgs'
cell_dofree = 'all'
/
CELL_PARAMETERS angstrom
        7.3236460686         0.0000000000         0.0000000000
        0.0000000000         7.7495899200         0.0000000000
        0.0000000000         0.0000000000         7.3236460686

ATOMIC_SPECIES
W 183.84 W_ONCV_LDA-4.0.upf
O 15.9994 O_ONCV_LDA-3.0.upf

ATOMIC_POSITIONS crystal
W 0.25	0.27767810457687514	0.0	 0 0 0
W 0.7499999777704698	0.7223218954231249	0.0	 0 0 0
W 0.25	0.22232191181247044	0.5	 0 0 0
W 0.7499999777704698	0.77767811664659	0.5	 0 0 0
W 0.7499999777704698	0.27767810457687514	0.5	 0 0 0
W 0.25	0.7223218954231249	0.5	 0 0 0
W 0.7499999777704698	0.22232191181247044	0.0	 0 0 0
W 0.25	0.77767811664659	0.0	 0 0 0
O 0.25	0.00718072684932433	0.0	 0 0 0
O 0.7499999777704698	0.9928192669744172	0.0	 0 0 0
O 0.25	0.4928192790441321	0.5	 0 0 0
O 0.7499999777704698	0.5071807330255828	0.5	 0 0 0
O 0.7499999777704698	0.00718072684932433	0.5	 0 0 0
O 0.25	0.9928192669744172	0.5	 0 0 0
O 0.7499999777704698	0.4928192790441321	0.0	 0 0 0
O 0.25	0.5071807330255828	0.0	 0 0 0
O 0.5	0.25	0.45976556846365557	 0 0 0
O 0.5	0.7500000058401847	0.5402344443847505	 0 0 0
O 0.0	0.25	0.9597656014636555	 0 0 0
O 0.0	0.7500000058401847	0.04023440863466648	 0 0 0
O 0.5	0.25	0.04023440863466648	 0 0 0
O 0.5	0.7500000058401847	0.9597656014636555	 0 0 0
O 0.0	0.25	0.5402344443847505	 0 0 0
O 0.0	0.7500000058401847	0.45976556846365557	 0 0 0
O 0.7097655778447798	0.25	0.7499999777704698	 0 0 0
O 0.2902344093068141	0.7500000058401847	0.25	 0 0 0
O 0.7902344666142808	0.25	0.25	 0 0 0
O 0.20976558446365556	0.7500000058401847	0.7499999777704698	 0 0 0
O 0.2902344093068141	0.25	0.7499999777704698	 0 0 0
O 0.7097655778447798	0.7500000058401847	0.25	 0 0 0
O 0.20976558446365556	0.25	0.25	 0 0 0
O 0.7902344666142808	0.7500000058401847	0.7499999777704698	 0 0 0

K_POINTS automatic
6 6 6 0 0 0
