
&CONTROL
    calculation   = 'vc-relax'
    restart_mode  = 'from_scratch'
    prefix        = 'Landau_8'
    pseudo_dir    = '/cluster/scratch/mnoe/QE/pps'
    outdir        = './'
    forc_conv_thr = 1.0d-7
    etot_conv_thr = 1.0d-7

/
&SYSTEM
    ibrav       = 0
    nat         = 32
    ntyp        = 2
    ecutwfc     = 120
    occupations = 'smearing'
    degauss     = 7.35d-4
    tot_charge  = -0.0
/
&ELECTRONS
    conv_thr    = 1.0d-8
    diagonalization = 'david'
/


&IONS
ion_dynamics = 'bfgs'
/

&CELL
cell_dynamics = 'bfgs'
cell_dofree = 'all'
/
CELL_PARAMETERS angstrom
        7.3236460686         0.0000000000         0.0000000000
        0.0000000000         7.7495899200         0.0000000000
        0.0000000000         0.0000000000         7.3236460686

ATOMIC_SPECIES
W 183.84 W_ONCV_LDA-4.0.upf
O 15.9994 O_ONCV_LDA-3.0.upf

ATOMIC_POSITIONS crystal
W 0.25	0.2807448300871667	0.0	 0 0 0
W 0.7499999940721253	0.7192551699128332	0.0	 0 0 0
W 0.25	0.21925518528332544	0.5	 0 0 0
W 0.7499999940721253	0.7807448105724241	0.5	 0 0 0
W 0.7499999940721253	0.2807448300871667	0.5	 0 0 0
W 0.25	0.7192551699128332	0.5	 0 0 0
W 0.7499999940721253	0.21925518528332544	0.0	 0 0 0
W 0.25	0.7807448105724241	0.0	 0 0 0
O 0.25	0.008016193826486488	0.0	 0 0 0
O 0.7499999940721253	0.991983821393178	0.0	 0 0 0
O 0.25	0.4919838018784352	0.5	 0 0 0
O 0.7499999940721253	0.508016178606822	0.5	 0 0 0
O 0.7499999940721253	0.008016193826486488	0.5	 0 0 0
O 0.25	0.991983821393178	0.5	 0 0 0
O 0.7499999940721253	0.4919838018784352	0.0	 0 0 0
O 0.25	0.508016178606822	0.0	 0 0 0
O 0.5	0.25	0.45226682119030814	 0 0 0
O 0.5	0.7499999905573825	0.5477331580359335	 0 0 0
O 0.0	0.25	0.9522668541903081	 0 0 0
O 0.0	0.7499999905573825	0.04773318443591106	 0 0 0
O 0.5	0.25	0.04773318443591106	 0 0 0
O 0.5	0.7499999905573825	0.9522668541903081	 0 0 0
O 0.0	0.25	0.5477331580359335	 0 0 0
O 0.0	0.7499999905573825	0.45226682119030814	 0 0 0
O 0.7022668478919413	0.25	0.7499999940721253	 0 0 0
O 0.2977331728818171	0.7499999905573825	0.25	 0 0 0
O 0.7977331639638082	0.25	0.25	 0 0 0
O 0.20226683719030816	0.7499999905573825	0.7499999940721253	 0 0 0
O 0.2977331728818171	0.25	0.7499999940721253	 0 0 0
O 0.7022668478919413	0.7499999905573825	0.25	 0 0 0
O 0.20226683719030816	0.25	0.25	 0 0 0
O 0.7977331639638082	0.7499999905573825	0.7499999940721253	 0 0 0

K_POINTS automatic
6 6 6 0 0 0
