&CONTROL
    calculation   = 'scf'
    restart_mode  = 'from_scratch'
    prefix        = 'Landau_7'
    pseudo_dir    = '/cluster/scratch/mnoe/QE/pps'
    outdir        = './'
/
&SYSTEM
    ibrav       = 0
    nat         = 32
    ntyp        = 2
    ecutwfc     = 120
    occupations = 'smearing'
    degauss     = 7.35d-4
    tot_charge  = -1.0
/
&ELECTRONS
    conv_thr    = 1.0d-8
    diagonalization = 'david'
/

CELL_PARAMETERS angstrom
   7.372715106   0.000000000   0.000000000
   0.000000000   7.712576131   0.000000000
   0.000000000   0.000000000   7.373870616

ATOMIC_SPECIES
W 183.84 W_ONCV_LDA-4.0.upf
O 15.9994 O_ONCV_LDA-3.0.upf

ATOMIC_POSITIONS crystal
W        0.246759999	0.28423720048	0.00306	
W        0.753239968	0.71576279952	0.996940001	
W        0.253239984	0.21576281137	0.503059999	
W        0.746760032	0.78423716948	0.496940001	
W       0.753239968	0.28423720048	0.496940001	
W       0.246759999	0.71576279952	0.503059999	
W       0.746760032	0.21576281137	0.996940001	
W       0.253239984	0.78423716948	0.00306	
O        0.244030004	0.01281820021	0.00095	
O        0.75596998	0.98718182846	0.999050017	
O        0.255969996	0.48718179095	0.500949983	
O        0.74403002	0.51281818456	0.499049985	
O        0.75596998	0.01281820021	0.499049985	
O        0.244030004	0.98718182846	0.500949983	
O        0.74403002	0.48718179095	0.999050017	
O        0.255969996	0.51281818456	0.00095	
O    0.500879987	0.243870006	0.4618271124	
O    0.499120013	0.756129963	0.53817286825	
O    0.999120013	0.256129978	0.96182713532	
O    0.000880003	0.743870006	0.038172912839999996	
O   0.499120013	0.243870006	0.038172912839999996	
O   0.500879987	0.756129963	0.96182713532	
O   0.000880003	0.256129978	0.53817286825	
O   0.999120013	0.743870006	0.4618271124	
O   0.71182715233	0.248659994	0.748659997	
O   0.28817289768	0.751340037	0.25133997	
O   0.78817286132	0.251340006	0.248660095	
O   0.21182712861	0.748659994	0.751340003	
O   0.28817289768	0.248659994	0.751340003	
O   0.71182715233	0.751340037	0.248660095	
O   0.21182712861	0.251340006	0.25133997	
O   0.78817286132	0.748659994	0.748659997	

K_POINTS automatic
6 6 6 0 0 0
