
&CONTROL
    calculation   = 'vc-relax'
    restart_mode  = 'from_scratch'
    prefix        = 'Landau_14'
    pseudo_dir    = '/cluster/scratch/mnoe/QE/pps'
    outdir        = './'
    forc_conv_thr = 1.0d-7
    etot_conv_thr = 1.0d-7

/
&SYSTEM
    ibrav       = 0
    nat         = 32
    ntyp        = 2
    ecutwfc     = 120
    occupations = 'smearing'
    degauss     = 7.35d-4
    tot_charge  = -0.0
/
&ELECTRONS
    conv_thr    = 1.0d-8
    diagonalization = 'david'
/


&IONS
ion_dynamics = 'bfgs'
/

&CELL
cell_dynamics = 'bfgs'
cell_dofree = 'all'
/
CELL_PARAMETERS angstrom
        7.3236460686         0.0000000000         0.0000000000
        0.0000000000         7.7495899200         0.0000000000
        0.0000000000         0.0000000000         7.3236460686

ATOMIC_SPECIES
W 183.84 W_ONCV_LDA-4.0.upf
O 15.9994 O_ONCV_LDA-3.0.upf

ATOMIC_POSITIONS crystal
        0.243530010         0.281860003         0.006120000 0 0 0
        0.756469974         0.718139997         0.993880002 0 0 0
        0.256469990         0.218140012         0.506120030 0 0 0
        0.743530026         0.781859972         0.493880002 0 0 0
        0.756469974         0.281860003         0.493880002 0 0 0
        0.243530010         0.718139997         0.506120030 0 0 0
        0.743530026         0.218140012         0.993880002 0 0 0
        0.256469990         0.781859972         0.006120000 0 0 0
        0.238059992         0.008320000         0.001900000 0 0 0
        0.761940025         0.991680023         0.998099970 0 0 0
        0.261940008         0.491679992         0.501900030 0 0 0
        0.738059975         0.508319977         0.498100002 0 0 0
        0.761940025         0.008320000         0.498100002 0 0 0
        0.238059992         0.991680023         0.501900030 0 0 0
        0.738059975         0.491679992         0.998099970 0 0 0
        0.261940008         0.508319977         0.001900000 0 0 0
        0.501770034         0.237749996         0.449540004 0 0 0
        0.498229966         0.762250035         0.550459963 0 0 0
        0.998229998         0.262250004         0.949540037 0 0 0
        0.001770020         0.737749996         0.050460012 0 0 0
        0.498229966         0.237749996         0.050460012 0 0 0
        0.501770034         0.762250035         0.949540037 0 0 0
        0.001770020         0.262250004         0.550459963 0 0 0
        0.998229998         0.737749996         0.449540004 0 0 0
        0.699540037         0.247320003         0.747319994 0 0 0
        0.300459996         0.752680027         0.252680006 0 0 0
        0.800459963         0.252679997         0.247319929 0 0 0
        0.199540020         0.747320003         0.752680006 0 0 0
        0.300459996         0.247320003         0.752680006 0 0 0
        0.699540037         0.752680027         0.247319929 0 0 0
        0.199540020         0.252679997         0.252680006 0 0 0
        0.800459963         0.747320003         0.747319994 0 0 0

K_POINTS automatic
6 6 6 0 0 0
