
&CONTROL
    calculation   = 'vc-relax'
    restart_mode  = 'from_scratch'
    prefix        = 'Landau_18'
    pseudo_dir    = '/cluster/scratch/mnoe/QE/pps'
    outdir        = './'
    forc_conv_thr = 1.0d-7
    etot_conv_thr = 1.0d-7

/
&SYSTEM
    ibrav       = 0
    nat         = 32
    ntyp        = 2
    ecutwfc     = 120
    occupations = 'smearing'
    degauss     = 7.35d-4
    tot_charge  = -0.0
/
&ELECTRONS
    conv_thr    = 1.0d-8
    diagonalization = 'david'
/


&IONS
ion_dynamics = 'bfgs'
/

&CELL
cell_dynamics = 'bfgs'
cell_dofree = 'all'
/
CELL_PARAMETERS angstrom
        7.3236460686         0.0000000000         0.0000000000
        0.0000000000         7.7495899200         0.0000000000
        0.0000000000         0.0000000000         7.3236460686

ATOMIC_SPECIES
W 183.84 W_ONCV_LDA-4.0.upf
O 15.9994 O_ONCV_LDA-3.0.upf

ATOMIC_POSITIONS crystal
W 0.2241886271142705	0.27479985676571705	0.0060215048538523	 0 0 0
W 0.7574885915903544	0.725200143234283	-0.025424476246147742	 0 0 0
W 0.27581137288572954	0.2252001605798643	0.5060215049389558	 0 0 0
W 0.7425113454123695	0.7747998984787422	0.47457548513895587	 0 0 0
W 0.7758113148123695	0.27479985676571705	0.49397849506104413	 0 0 0
W 0.24251137288572952	0.725200143234283	0.5254245148610441	 0 0 0
W 0.7241886221903544	0.2252001605798643	-0.006021484153852346	 0 0 0
W 0.2574886271142705	0.7747998984787422	0.0254244969461477	 0 0 0
O 0.21643546182167545	0.0063966067869835625	-0.013010946760338291	 0 0 0
O 0.7778694035923722	-0.006396633044194128	-0.022784953060338252	 0 0 0
O 0.28356450647293735	0.493603408668831	0.48698901253427446	 0 0 0
O 0.7221305176781816	0.5063966330441941	0.4772150296342745	 0 0 0
O 0.7835644528781815	0.0063966067869835625	0.5130109661562162	 0 0 0
O 0.22213049747293737	-0.006396633044194128	0.5227849490562163	 0 0 0
O 0.7164354683923722	0.493603408668831	0.013010940460338327	 0 0 0
O 0.27786947082167546	0.5063966330441941	0.02278494676033829	 0 0 0
O 0.5085761913746021	0.2144845426027369	0.4668034506782551	 0 0 0
O 0.4994681769746021	0.7775025823525439	0.5331965937259328	 0 0 0
O -0.008576186988233347	0.28551543039726307	0.9668034836782552	 0 0 0
O 0.0005318121117666658	0.7224975440036461	0.03319649964546404	 0 0 0
O 0.49142380862539786	0.2144845426027369	0.03319649964546404	 0 0 0
O 0.5005318230253978	0.7775025823525439	0.9668034836782552	 0 0 0
O 0.008576146374602127	0.28551543039726307	0.5331965937259328	 0 0 0
O -0.0005318527253978869	0.7224975440036461	0.4668034506782551	 0 0 0
O 0.7168034438033705	0.26148342817510817	0.7457504892795933	 0 0 0
O 0.28319651179244143	0.7752355097570854	0.25955648430350936	 0 0 0
O 0.7831966312552361	0.23851655609272154	0.24575056800350936	 0 0 0
O 0.21680346667825517	0.7247646169746987	0.7595564640795933	 0 0 0
O 0.28319651179244143	0.26148342817510817	0.7542494791874711	 0 0 0
O 0.7168034438033705	0.7752355097570854	0.24044357419649068	 0 0 0
O 0.21680346667825517	0.23851655609272154	0.2542494904964907	 0 0 0
O 0.7831966312552361	0.7247646169746987	0.7404435043874711	 0 0 0

K_POINTS automatic
6 6 6 0 0 0
