
&CONTROL
    calculation   = 'vc-relax'
    restart_mode  = 'from_scratch'
    prefix        = 'Landau_20'
    pseudo_dir    = '/cluster/scratch/mnoe/QE/pps'
    outdir        = './'
    forc_conv_thr = 1.0d-7
    etot_conv_thr = 1.0d-7

/
&SYSTEM
    ibrav       = 0
    nat         = 32
    ntyp        = 2
    ecutwfc     = 120
    occupations = 'smearing'
    degauss     = 7.35d-4
    tot_charge  = -0.0
/
&ELECTRONS
    conv_thr    = 1.0d-8
    diagonalization = 'david'
/


&IONS
ion_dynamics = 'bfgs'
/

&CELL
cell_dynamics = 'bfgs'
cell_dofree = 'all'
/
CELL_PARAMETERS angstrom
        7.3236460686         0.0000000000         0.0000000000
        0.0000000000         7.7495899200         0.0000000000
        0.0000000000         0.0000000000         7.3236460686

ATOMIC_SPECIES
W 183.84 W_ONCV_LDA-4.0.upf
O 15.9994 O_ONCV_LDA-3.0.upf

ATOMIC_POSITIONS crystal
W 0.25	0.2739003587681742	0.0	 0 0 0
W 0.7499999576892755	0.7260996412318258	0.0	 0 0 0
W 0.25	0.22609965887624597	0.5	 0 0 0
W 0.7499999576892755	0.773900409745203	0.5	 0 0 0
W 0.7499999576892755	0.2739003587681742	0.5	 0 0 0
W 0.25	0.7260996412318258	0.5	 0 0 0
W 0.7499999576892755	0.22609965887624597	0.0	 0 0 0
W 0.25	0.773900409745203	0.0	 0 0 0
O 0.25	0.006151556856545186	0.0	 0 0 0
O 0.7499999576892755	0.9938484106106289	0.0	 0 0 0
O 0.25	0.49384846158765766	0.5	 0 0 0
O 0.7499999576892755	0.5061515893893711	0.5	 0 0 0
O 0.7499999576892755	0.006151556856545186	0.5	 0 0 0
O 0.25	0.9938484106106289	0.5	 0 0 0
O 0.7499999576892755	0.49384846158765766	0.0	 0 0 0
O 0.25	0.5061515893893711	0.0	 0 0 0
O 0.5	0.25	0.4690029002650604	 0 0 0
O 0.5	0.7500000246663043	0.5309971540008088	 0 0 0
O 0.0	0.25	0.9690029332650604	 0 0 0
O 0.0	0.7500000246663043	0.030997041691171616	 0 0 0
O 0.5	0.25	0.030997041691171616	 0 0 0
O 0.5	0.7500000246663043	0.9690029332650604	 0 0 0
O 0.0	0.25	0.5309971540008088	 0 0 0
O 0.0	0.7500000246663043	0.4690029002650604	 0 0 0
O 0.7190028883099157	0.25	0.7499999576892755	 0 0 0
O 0.28099705742421494	0.7500000246663043	0.25	 0 0 0
O 0.7809971963115333	0.25	0.25	 0 0 0
O 0.2190029162650604	0.7500000246663043	0.7499999576892755	 0 0 0
O 0.28099705742421494	0.25	0.7499999576892755	 0 0 0
O 0.7190028883099157	0.7500000246663043	0.25	 0 0 0
O 0.2190029162650604	0.25	0.25	 0 0 0
O 0.7809971963115333	0.7500000246663043	0.7499999576892755	 0 0 0

K_POINTS automatic
6 6 6 0 0 0
