
&CONTROL
    calculation   = 'vc-relax'
    restart_mode  = 'from_scratch'
    prefix        = 'Landau_9'
    pseudo_dir    = '/cluster/scratch/mnoe/QE/pps'
    outdir        = './'
    forc_conv_thr = 1.0d-7
    etot_conv_thr = 1.0d-7

/
&SYSTEM
    ibrav       = 0
    nat         = 32
    ntyp        = 2
    ecutwfc     = 120
    occupations = 'smearing'
    degauss     = 7.35d-4
    tot_charge  = -0.0
/
&ELECTRONS
    conv_thr    = 1.0d-8
    diagonalization = 'david'
/


&IONS
ion_dynamics = 'bfgs'
/

&CELL
cell_dynamics = 'bfgs'
cell_dofree = 'all'
/
CELL_PARAMETERS angstrom
        7.3236460686         0.0000000000         0.0000000000
        0.0000000000         7.7495899200         0.0000000000
        0.0000000000         0.0000000000         7.3236460686

ATOMIC_SPECIES
W 183.84 W_ONCV_LDA-4.0.upf
O 15.9994 O_ONCV_LDA-3.0.upf

ATOMIC_POSITIONS crystal
W 0.25808999	0.28491639976000005	0.250229999	 0 0 0
W -0.2502300399999998	0.71508360024	-0.741910042	 0 0 0
W 0.24191005799999998	0.21508361119	0.7502300239999999	 0 0 0
W 0.750229999	0.78491636876	0.758089974	 0 0 0
W 0.741910001	0.28491639976000005	0.749769992	 0 0 0
W 0.25023003999999993	0.71508360024	0.741910042	 0 0 0
W -0.24191004199999988	0.21508361119	-0.7502300399999999	 0 0 0
W 0.24977000800000004	0.78491636876	0.24191000100000004	 0 0 0
O 0.25889999899999994	0.014103400269999998	0.25646001399999996	 0 0 0
O -0.2564600119999998	0.98589663002	-0.741099984	 0 0 0
O 0.24110000099999995	0.48589659065	0.7564599949999999	 0 0 0
O 0.756460014	0.51410338672	0.7588999989999999	 0 0 0
O 0.741099986	0.014103400269999998	0.743540005	 0 0 0
O 0.25645999499999994	0.98589663002	0.741100001	 0 0 0
O -0.24109998399999988	0.48589659065	-0.7564600119999999	 0 0 0
O 0.24354000499999995	0.51410338672	0.24109998600000004	 0 0 0
O 0.49712996500000006	0.25960000399999994	0.7153377148	 0 0 0
O 0.4994099890000001	0.7438400409999999	0.78466226975	 0 0 0
O -0.9971300630000001	0.24039997999999996	1.21533773484	 0 0 0
O 0.000589959999999976	0.756159931	0.28466231308	 0 0 0
O 0.502870035	0.25960000399999994	0.28466231308	 0 0 0
O 0.500590011	0.7438400409999999	1.21533773484	 0 0 0
O -0.0028700210000000247	0.24039997999999996	0.78466226975	 0 0 0
O -1.000590044	0.756159931	0.7153377148	 0 0 0
O 0.7153377567099999	0.24383999399999995	2.000590044	 0 0 0
O 0.28466229816	0.7404000119999999	0.49712996499999995	 0 0 0
O 0.78466226084	0.25615999	0.500589946	 0 0 0
O 0.21533773106999995	0.75959996	1.9971299980000001	 0 0 0
O 0.28466229816	0.24383999399999995	0.9994099750000001	 0 0 0
O 0.71533775671	0.7404000119999999	0.50286997	 0 0 0
O 0.21533773107	0.25615999	0.499409989	 0 0 0
O 0.78466226084	0.75959996	1.002870021	 0 0 0

K_POINTS automatic
6 6 6 0 0 0
