
&CONTROL
    calculation   = 'vc-relax'
    restart_mode  = 'from_scratch'
    prefix        = 'Landau_34'
    pseudo_dir    = '/cluster/scratch/mnoe/QE/pps'
    outdir        = './'
    forc_conv_thr = 1.0d-7
    etot_conv_thr = 1.0d-7

/
&SYSTEM
    ibrav       = 0
    nat         = 16
    ntyp        = 2
    ecutwfc     = 120
    occupations = 'smearing'
    degauss     = 7.35d-4
    tot_charge  = -0.0
/
&ELECTRONS
    conv_thr    = 1.0d-8
    diagonalization = 'david'
/


&IONS
ion_dynamics = 'bfgs'
/

&CELL
cell_dynamics = 'bfgs'
cell_dofree = 'all'
/
CELL_PARAMETERS angstrom
        5.177959919             0.0             0.0
        0.0             5.177959919             0.0
        0.0             0.0            7.7496299744

ATOMIC_SPECIES
W 183.84 W_ONCV_LDA-4.0.upf
O 15.9994 O_ONCV_LDA-3.0.upf

ATOMIC_POSITIONS crystal
W       0.24999999999991337	0.2499999999998457	0.20657711698612996	 0 0 0
W       0.7500000229999241	0.7500000229999714	0.7934228980105831	 0 0 0
W       0.7500000230000252	0.7500000230000657	0.2934228980138681	 0 0 0
W       0.24999999999989755	0.25000000000004874	0.7065771019894171	 0 0 0
O      0.24999999999963213	0.24999999999988348	0.46982615040488385	 0 0 0
O      0.7500000229999898	0.7500000230004386	0.5301738496001693	 0 0 0
O      0.7500000229998257	0.7500000230000258	0.030173862595123075	 0 0 0
O      0.24999999999968525	0.25000000000007316	0.9698261503998192	 0 0 0
O       0.5090940261993945	0.49090592780050735	0.25000000000005695	 0 0 0
O       0.4909059738368972	0.5090940721631438	0.7499999999999981	 0 0 0
O       -0.009094043199031676	1.009094072198844	0.25000000000000555	 0 0 0
O       1.0090939801635992	-0.009094009163463028	0.7500000000002777	 0 0 0
O       1.009094072199063	0.5090940261990127	0.2500000000002135	 0 0 0
O       -0.009094009163129739	0.4909059738368648	0.7499999999999664	 0 0 0
O       0.4909059278007744	-0.009094043199156902	0.24999999999983885	 0 0 0
O       0.5090940721636226	1.0090939801635335	0.7499999999996534	 0 0 0

K_POINTS automatic
9 9 6 0 0 0
