&CONTROL
    calculation   = 'scf'
    restart_mode  = 'from_scratch'
    prefix        = 'Landau_13'
    pseudo_dir    = '/cluster/scratch/mnoe/QE/pps'
    outdir        = './'
/
&SYSTEM
    ibrav       = 0
    nat         = 32
    ntyp        = 2
    ecutwfc     = 120
    occupations = 'smearing'
    degauss     = 7.35d-4
    tot_charge  = -0.2
/
&ELECTRONS
    conv_thr    = 1.0d-8
    diagonalization = 'david'
/

CELL_PARAMETERS angstrom
   7.388425498   0.000000000   0.000000000
   0.000000000   7.615745524   0.000000000
   0.000000000   0.000000000   7.401087907

ATOMIC_SPECIES
W 183.84 W_ONCV_LDA-4.0.upf
O 15.9994 O_ONCV_LDA-3.0.upf

ATOMIC_POSITIONS crystal
W 0.23041323190384233	0.2780288863669087	0.0033479166119098347	
W 0.7544632147727588	0.7219711136330913	-0.019363069738090197	
W 0.2695867680961577	0.22197112990589718	0.5033479157535826	
W 0.7455367544528347	0.7780288948238931	0.4806369014535826	
W 0.7695867323528347	0.2780288863669087	0.4966520842464174	
W 0.2455367680961577	0.7219711136330913	0.5193630985464174	
W 0.7304132368727588	0.22197112990589718	-0.0033479016619098693	
W 0.25446323190384235	0.7780288948238931	0.019363084688090164	
O 0.22546515223455751	0.007276290211868314	-0.011243408437104621	
O 0.7698341169196623	-0.0072762939407932355	-0.018302412987104597	
O 0.27453482308163085	0.4927237145161912	0.4887565603790837	
O 0.7301658393206478	0.5072762939407932	0.4816975727290837	
O 0.7745347925206478	0.007276290211868314	0.5112434250964007	
O 0.23016581658163082	-0.0072762939407932355	0.5183024127464008	
O 0.7254651637196623	0.4927237145161912	0.011243403887104647	
O 0.2698341587345575	0.5072762939407932	0.018302408437104623	
O 0.5066089032488779	0.22393658269035427	0.4589078379681395	
O 0.5000308928488779	0.7694496017250853	0.5410921710344567	
O -0.006608896564097364	0.2760633978096457	0.9589078709681395	
O -3.0897214097354644e-05	0.7305504718625029	0.04109214239329391	
O 0.493391096751122	0.22393658269035427	0.04109214239329391	
O 0.499969107151122	0.7694496017250853	0.9589078709681395	
O 0.006608870748877947	0.2760633978096457	0.5410921710344567	
O 3.087139887793678e-05	0.7305504718625029	0.4589078379681395	
O 0.7089078493304384	0.260187813546121	0.7472046909392734	
O 0.2910921416669653	0.7701198644161353	0.25717567882035697	
O 0.7910921913993519	0.23981217346859557	0.24720473927035694	
O 0.20890785396813952	0.7298802093886099	0.7571756727392734	
O 0.2910921416669653	0.260187813546121	0.7527953042568868	
O 0.7089078493304384	0.7701198644161353	0.2428243634296431	
O 0.20890785396813952	0.23981217346859557	0.2527953029796431	
O 0.7910921913993519	0.7298802093886099	0.7428243224568868	

K_POINTS automatic
6 6 6 0 0 0
