&CONTROL
    calculation   = 'scf'
    restart_mode  = 'from_scratch'
    prefix        = 'Landau_11'
    pseudo_dir    = '/cluster/scratch/mnoe/QE/pps'
    outdir        = './'
/
&SYSTEM
    ibrav       = 0
    nat         = 32
    ntyp        = 2
    ecutwfc     = 120
    occupations = 'smearing'
    degauss     = 7.35d-4
    tot_charge  = -1
/
&ELECTRONS
    conv_thr    = 1.0d-8
    diagonalization = 'david'
/

CELL_PARAMETERS angstrom
   7.322623126   0.000000000   0.000000000
   0.000000000   7.738079881   0.000000000
   0.000000000   0.000000000   7.327048404

ATOMIC_SPECIES
W 183.84 W_ONCV_LDA-4.0.upf
O 15.9994 O_ONCV_LDA-3.0.upf

ATOMIC_POSITIONS crystal
W         0.244910008         0.281860003         0.004800000
W         0.755089992         0.718139997         0.995199951
W         0.255089992         0.218140012         0.504800017
W         0.744910008         0.781859972         0.495200016
W         0.755089992         0.281860003         0.495200016
W         0.244910008         0.718139997         0.504800017
W         0.744910008         0.218140012         0.995199951
W         0.255089992         0.781859972         0.004800000
O         0.240619996         0.008320000         0.001490000
O         0.759379955         0.991680023         0.998509979
O         0.259379988         0.491679992         0.501489988
O         0.740620045         0.508319977         0.498510012
O         0.759379955         0.008320000         0.498510012
O         0.240619996         0.991680023         0.501489988
O         0.740620045         0.491679992         0.998509979
O         0.259379988         0.508319977         0.001490000
O         0.501389976         0.240369998         0.449540004
O         0.498610024         0.759629986         0.550459963
O         0.998609991         0.259629986         0.949540037
O         0.001389980         0.740370045         0.050460012
O         0.498610024         0.240369998         0.050460012
O         0.501389976         0.759629986         0.949540037
O         0.001389980         0.259629986         0.550459963
O         0.998609991         0.740370045         0.449540004
O         0.699540037         0.247899992         0.747889984
O         0.300459996         0.752099962         0.252110000
O         0.800459963         0.252099992         0.247890000
O         0.199540020         0.747900008         0.752110016
O         0.300459996         0.247899992         0.752110016
O         0.699540037         0.752099962         0.247890000
O         0.199540020         0.252099992         0.252110000
O         0.800459963         0.747900008         0.747889984

K_POINTS automatic
6 6 6 0 0 0
