
&CONTROL
    calculation   = 'vc-relax'
    restart_mode  = 'from_scratch'
    prefix        = 'Landau_12'
    pseudo_dir    = '/cluster/scratch/mnoe/QE/pps'
    outdir        = './'
    forc_conv_thr = 1.0d-7
    etot_conv_thr = 1.0d-7

/
&SYSTEM
    ibrav       = 0
    nat         = 32
    ntyp        = 2
    ecutwfc     = 120
    occupations = 'smearing'
    degauss     = 7.35d-4
    tot_charge  = -0.0
/
&ELECTRONS
    conv_thr    = 1.0d-8
    diagonalization = 'david'
/


&IONS
ion_dynamics = 'bfgs'
/

&CELL
cell_dynamics = 'bfgs'
cell_dofree = 'all'
/
CELL_PARAMETERS angstrom
        7.3236460686         0.0000000000         0.0000000000
        0.0000000000         7.7495899200         0.0000000000
        0.0000000000         0.0000000000         7.3236460686

ATOMIC_SPECIES
W 183.84 W_ONCV_LDA-4.0.upf
O 15.9994 O_ONCV_LDA-3.0.upf

ATOMIC_POSITIONS crystal
W 0.26078997	0.28593519868	0.25031000800000003	 0 0 0
W -0.250309998	0.7140648013199999	-0.739209982	 0 0 0
W 0.23920999800000003	0.21406481092	0.7503099820000001	 0 0 0
W 0.750310008	0.78593516768	0.76078997	 0 0 0
W 0.7392099919999999	0.28593519868	0.7496899859999999	 0 0 0
W 0.25030998200000004	0.7140648013199999	0.739209998	 0 0 0
W -0.23920998199999988	0.21406481092	-0.7503099980000001	 0 0 0
W 0.24968998599999997	0.78593516768	0.23920999199999993	 0 0 0
O 0.261870013	0.016031200359999997	0.25861001799999994	 0 0 0
O -0.2586100069999999	0.98396883236	-0.7381299710000001	 0 0 0
O 0.23812997099999994	0.4839687902	0.7586100069999999	 0 0 0
O 0.7586100179999999	0.51603118996	0.761870029	 0 0 0
O 0.738129982	0.016031200359999997	0.7413900090000001	 0 0 0
O 0.25860999099999993	0.98396883236	0.738129987	 0 0 0
O -0.238129971	0.4839687902	-0.758610007	 0 0 0
O 0.24138999300000002	0.51603118996	0.23812998200000002	 0 0 0
O 0.49618001499999986	0.262789981	0.7206036184	 0 0 0
O 0.4992199589999998	0.741789967	0.779396372	 0 0 0
O -0.996179999	0.23720997299999996	1.22060363412	 0 0 0
O 0.0007801110000000366	0.7582099429999999	0.27939641344	 0 0 0
O 0.503819985	0.262789981	0.27939641344	 0 0 0
O 0.5007800410000001	0.741789967	1.22060363412	 0 0 0
O -0.003819946999999926	0.23720997299999996	0.779396372	 0 0 0
O -1.000780057	0.7582099429999999	0.7206036184	 0 0 0
O 0.7206036632799999	0.24178996599999997	2.000780041	 0 0 0
O 0.27939639888	0.737209928	0.4961799990000001	 0 0 0
O 0.77939636012	0.258209988	0.5007800570000001	 0 0 0
O 0.22060363475999994	0.7627899819999999	1.9961800149999998	 0 0 0
O 0.27939639888	0.24178996599999997	0.9992199049999998	 0 0 0
O 0.72060366328	0.737209928	0.503820001	 0 0 0
O 0.22060363476	0.258209988	0.49921994300000005	 0 0 0
O 0.77939636012	0.7627899819999999	1.0038199310000002	 0 0 0

K_POINTS automatic
6 6 6 0 0 0
