# Phonon frequency and phonon lifetime in meV 
# Q-point  Mode   Phonon freq (meV)   Phonon linewidth (meV)
        1     1     -0.27148755E+01      0.0000000000E+00
        1     2     -0.49529335E-03      0.0000000000E+00
        1     3     -0.49529286E-03      0.0000000000E+00
        1     4     -0.19493499E-03      0.0000000000E+00
        1     5      0.96643237E+01      0.0000000000E+00
        1     6      0.96643237E+01      0.0000000000E+00
        1     7      0.16443075E+02      0.0000000000E+00
        1     8      0.30527241E+02      0.0000000000E+00
        1     9      0.30527241E+02      0.0000000000E+00
        1    10      0.30647932E+02      0.0000000000E+00
        1    11      0.32292854E+02      0.0000000000E+00
        1    12      0.32292854E+02      0.0000000000E+00
        1    13      0.38866627E+02      0.0000000000E+00
        1    14      0.38866627E+02      0.0000000000E+00
        1    15      0.39694560E+02      0.0000000000E+00
        1    16      0.45396602E+02      0.0000000000E+00
        1    17      0.45396602E+02      0.0000000000E+00
        1    18      0.56796614E+02      0.0000000000E+00
        1    19      0.75817745E+02      0.0000000000E+00
        1    20      0.76932838E+02      0.0000000000E+00
        1    21      0.76932838E+02      0.0000000000E+00
        1    22      0.96158486E+02      0.0000000000E+00
        1    23      0.96712214E+02      0.0000000000E+00
        1    24      0.12922724E+03      0.0000000000E+00
        2     1     -0.27153302E+01      0.0000000000E+00
        2     2      0.16699906E+00      0.0000000000E+00
        2     3      0.16699906E+00      0.0000000000E+00
        2     4      0.32171999E+00      0.0000000000E+00
        2     5      0.96697787E+01     -0.6956058080E-06
        2     6      0.96697787E+01     -0.6956058080E-06
        2     7      0.16446655E+02     -0.4038172724E-05
        2     8      0.30519447E+02     -0.7226271716E-06
        2     9      0.30519447E+02     -0.7226271716E-06
        2    10      0.30648102E+02     -0.1544729271E-06
        2    11      0.32295889E+02     -0.9049417186E-07
        2    12      0.32295889E+02     -0.9049417186E-07
        2    13      0.38866685E+02     -0.7918682947E-08
        2    14      0.38866685E+02     -0.7918682947E-08
        2    15      0.39698938E+02     -0.1721385504E-06
        2    16      0.45399812E+02     -0.1320012505E-06
        2    17      0.45399812E+02     -0.1320012505E-06
        2    18      0.56796508E+02     -0.3223501560E-09
        2    19      0.75816595E+02      0.6827119618E-11
        2    20      0.76932297E+02     -0.1681900977E-10
        2    21      0.76932297E+02     -0.1681900977E-10
        2    22      0.96162398E+02      0.7658269383E-14
        2    23      0.96724844E+02     -0.7695006909E-12
        2    24      0.12922811E+03     -0.5881813005E-19
        3     1     -0.27166937E+01      0.0000000000E+00
        3     2      0.33342706E+00      0.0000000000E+00
        3     3      0.33342706E+00      0.0000000000E+00
        3     4      0.64363680E+00     -0.4926045728E-05
        3     5      0.96861292E+01     -0.2324536553E-05
        3     6      0.96861292E+01     -0.2324536553E-05
        3     7      0.16457394E+02     -0.3554539903E-05
        3     8      0.30496212E+02     -0.7391161818E-06
        3     9      0.30496212E+02     -0.7391161818E-06
        3    10      0.30648614E+02     -0.2338245421E-06
        3    11      0.32304866E+02     -0.2225480138E-06
        3    12      0.32304866E+02     -0.2225480138E-06
        3    13      0.38866858E+02     -0.2488296986E-07
        3    14      0.38866858E+02     -0.2488296986E-07
        3    15      0.39712047E+02     -0.8463964261E-06
        3    16      0.45409427E+02     -0.1780654449E-06
        3    17      0.45409427E+02     -0.1780654449E-06
        3    18      0.56796191E+02     -0.1382065236E-08
        3    19      0.75813144E+02      0.3154897227E-10
        3    20      0.76930675E+02     -0.7365140145E-10
        3    21      0.76930675E+02     -0.7365140145E-10
        3    22      0.96174177E+02      0.9169242004E-12
        3    23      0.96762643E+02     -0.4008831693E-11
        3    24      0.12923071E+03     -0.2899544030E-18
        4     1     -0.27189642E+01      0.0000000000E+00
        4     2      0.49871874E+00      0.0000000000E+00
        4     3      0.49871874E+00      0.0000000000E+00
        4     4      0.96594247E+00     -0.5670012996E-05
        4     5      0.97133310E+01     -0.6079409773E-05
        4     6      0.97133310E+01     -0.6079409773E-05
        4     7      0.16475282E+02     -0.2974761849E-05
        4     8      0.30457951E+02     -0.7935969644E-06
        4     9      0.30457951E+02     -0.7935969644E-06
        4    10      0.30649465E+02      0.3938337958E-06
        4    11      0.32319418E+02     -0.3233135290E-06
        4    12      0.32319418E+02     -0.3233135290E-06
        4    13      0.38867145E+02     -0.3346401765E-07
        4    14      0.38867145E+02     -0.3346401765E-07
        4    15      0.39733803E+02     -0.1966955690E-05
        4    16      0.45425400E+02     -0.1860438597E-06
        4    17      0.45425400E+02     -0.1860438597E-06
        4    18      0.56795662E+02     -0.2748694868E-08
        4    19      0.75807395E+02      0.9593386353E-10
        4    20      0.76927972E+02     -0.1597342882E-09
        4    21      0.76927972E+02     -0.1597342882E-09
        4    22      0.96193933E+02      0.2811864471E-11
        4    23      0.96825356E+02     -0.9472179565E-11
        4    24      0.12923505E+03     -0.4501944933E-18
        5     1     -0.27221389E+01      0.0000000000E+00
        5     2      0.66232677E+00     -0.1801665749E-04
        5     3      0.66232677E+00     -0.1801665749E-04
        5     4      0.12888201E+01     -0.6131246457E-05
        5     5      0.97513092E+01     -0.2013945895E-04
        5     6      0.97513092E+01     -0.2013945895E-04
        5     7      0.16500307E+02     -0.4313804746E-05
        5     8      0.30405293E+02     -0.9344504747E-06
        5     9      0.30405293E+02     -0.9344504747E-06
        5    10      0.30650652E+02      0.2089589682E-05
        5    11      0.32339004E+02     -0.4469075378E-06
        5    12      0.32339004E+02     -0.4469075378E-06
        5    13      0.38867545E+02     -0.3155191813E-07
        5    14      0.38867545E+02     -0.3155191813E-07
        5    15      0.39764073E+02     -0.4140959029E-05
        5    16      0.45447657E+02     -0.2853896836E-06
        5    17      0.45447657E+02     -0.2853896836E-06
        5    18      0.56794923E+02     -0.6729591718E-08
        5    19      0.75799351E+02      0.2034993562E-09
        5    20      0.76924191E+02     -0.2846357598E-09
        5    21      0.76924191E+02     -0.2846357598E-09
        5    22      0.96221787E+02      0.3313555461E-11
        5    23      0.96912627E+02     -0.1991124670E-10
        5    24      0.12924113E+03     -0.4908990650E-18
        6     1     -0.27262137E+01      0.0000000000E+00
        6     2      0.82372776E+00     -0.1813878432E-04
        6     3      0.82372776E+00     -0.1813878432E-04
        6     4      0.16124394E+01     -0.5303067188E-05
        6     5      0.97999572E+01     -0.3715722017E-04
        6     6      0.97999572E+01     -0.3715722017E-04
        6     7      0.16532449E+02     -0.6481039752E-05
        6     8      0.30338989E+02     -0.1243467135E-05
        6     9      0.30338989E+02     -0.1243467135E-05
        6    10      0.30652171E+02      0.5487946968E-05
        6    11      0.32362986E+02     -0.9268447374E-06
        6    12      0.32362986E+02     -0.9268447374E-06
        6    13      0.38868055E+02     -0.3136435206E-07
        6    14      0.38868055E+02     -0.3136435206E-07
        6    15      0.39802671E+02     -0.7213178390E-05
        6    16      0.45476092E+02     -0.4005151558E-06
        6    17      0.45476092E+02     -0.4005151558E-06
        6    18      0.56793974E+02     -0.1040446011E-07
        6    19      0.75789015E+02      0.4045144966E-09
        6    20      0.76919337E+02     -0.4198747312E-09
        6    21      0.76919337E+02     -0.4198747312E-09
        6    22      0.96257815E+02      0.5407151653E-11
        6    23      0.97024046E+02     -0.3446142020E-10
        6    24      0.12924895E+03      0.4205029276E-18
        7     1     -0.27311835E+01      0.0000000000E+00
        7     2      0.98242965E+00      0.2492927133E-05
        7     3      0.98242965E+00      0.2492927133E-05
        7     4      0.19369528E+01      0.1294399235E-04
        7     5      0.98591346E+01      0.9251856139E-03
        7     6      0.98591346E+01      0.9251856139E-03
        7     7      0.16571682E+02      0.1478743680E-05
        7     8      0.30259849E+02     -0.1884160973E-06
        7     9      0.30259849E+02     -0.1884160973E-06
        7    10      0.30654017E+02      0.1453964698E-04
        7    11      0.32390702E+02      0.2672527589E-05
        7    12      0.32390702E+02      0.2672527589E-05
        7    13      0.38868673E+02      0.1803744171E-06
        7    14      0.38868673E+02      0.1803744171E-06
        7    15      0.39849362E+02     -0.9033806954E-05
        7    16      0.45510575E+02     -0.2973068680E-06
        7    17      0.45510575E+02     -0.2973068680E-06
        7    18      0.56792815E+02     -0.1276028472E-07
        7    19      0.75776393E+02      0.3427264043E-08
        7    20      0.76913413E+02      0.5748916463E-08
        7    21      0.76913413E+02      0.5748916463E-08
        7    22      0.96302025E+02      0.1149056163E-10
        7    23      0.97159183E+02     -0.4458757264E-10
        7    24      0.12925853E+03      0.1561153216E-16
        8     1     -0.27370420E+01      0.0000000000E+00
        8     2      0.11379782E+01      0.3680001770E-04
        8     3      0.11379782E+01      0.3680001770E-04
        8     4      0.22624921E+01      0.3183556886E-04
        8     5      0.99286654E+01      0.1227399625E-02
        8     6      0.99286654E+01      0.1227399625E-02
        8     7      0.16617974E+02      0.2043371739E-04
        8     8      0.30168667E+02      0.1419442211E-05
        8     9      0.30168667E+02      0.1419442211E-05
        8    10      0.30656183E+02      0.3085835181E-04
        8    11      0.32421529E+02      0.5979239716E-05
        8    12      0.32421529E+02      0.5979239716E-05
        8    13      0.38869398E+02      0.4942357911E-06
        8    14      0.38869398E+02      0.4942357911E-06
        8    15      0.39903865E+02     -0.9949167559E-05
        8    16      0.45550950E+02     -0.1150722967E-06
        8    17      0.45550950E+02     -0.1150722967E-06
        8    18      0.56791447E+02     -0.1068654606E-07
        8    19      0.75761492E+02      0.5315049314E-08
        8    20      0.76906426E+02      0.8601826509E-08
        8    21      0.76906426E+02      0.8601826509E-08
        8    22      0.96354350E+02      0.4809228348E-10
        8    23      0.97317589E+02     -0.5094319647E-10
        8    24      0.12926987E+03      0.3374580987E-16
        9     1     -0.27437819E+01      0.0000000000E+00
        9     2      0.12899624E+01      0.2262393860E-04
        9     3      0.12899624E+01      0.2262393860E-04
        9     4      0.25891650E+01      0.4340914712E-04
        9     5      0.10008336E+02      0.1520205003E-02
        9     6      0.10008336E+02      0.1520205003E-02
        9     7      0.16671283E+02      0.3160678913E-04
        9     8      0.30066197E+02      0.2405697459E-05
        9     9      0.30066197E+02      0.2405697459E-05
        9    10      0.30658661E+02      0.3884214143E-04
        9    11      0.32454913E+02      0.8962346520E-05
        9    12      0.32454913E+02      0.8962346520E-05
        9    13      0.38870227E+02      0.8177265485E-06
        9    14      0.38870227E+02      0.8177265485E-06
        9    15      0.39965860E+02     -0.1654766583E-04
        9    16      0.45597038E+02     -0.1359716116E-06
        9    17      0.45597038E+02     -0.1359716116E-06
        9    18      0.56789873E+02     -0.1019625102E-07
        9    19      0.75744319E+02      0.7468777048E-08
        9    20      0.76898382E+02      0.1075214152E-07
        9    21      0.76898382E+02      0.1075214152E-07
        9    22      0.96414658E+02      0.6319652490E-10
        9    23      0.97498797E+02     -0.7572894729E-10
        9    24      0.12928297E+03      0.4895251856E-16
       10     1     -0.27513946E+01      0.0000000000E+00
       10     2      0.14380196E+01      0.1637727043E-03
       10     3      0.14380196E+01      0.1637727043E-03
       10     4      0.29170530E+01      0.8608833682E-04
       10     5      0.10097895E+02      0.2067271620E-02
       10     6      0.10097895E+02      0.2067271620E-02
       10     7      0.16731562E+02      0.7619431440E-04
       10     8      0.29953120E+02      0.1004605031E-04
       10     9      0.29953120E+02      0.1004605031E-04
       10    10      0.30661444E+02      0.1031580272E-03
       10    11      0.32490392E+02      0.2364899583E-04
       10    12      0.32490392E+02      0.2364899583E-04
       10    13      0.38871159E+02      0.2167300714E-05
       10    14      0.38871159E+02      0.2167300714E-05
       10    15      0.40034987E+02     -0.1448527523E-04
       10    16      0.45648640E+02      0.4929255900E-06
       10    17      0.45648640E+02      0.4929255900E-06
       10    18      0.56788093E+02      0.1022301657E-07
       10    19      0.75724882E+02      0.1246643385E-07
       10    20      0.76889290E+02      0.1449331640E-07
       10    21      0.76889290E+02      0.1449331640E-07
       10    22      0.96482765E+02      0.1534188416E-09
       10    23      0.97702305E+02     -0.7176992150E-10
       10    24      0.12929785E+03      0.1068314668E-15
       11     1     -0.27598708E+01      0.0000000000E+00
       11     2      0.15818380E+01      0.3618015841E-03
       11     3      0.15818380E+01      0.3618015841E-03
       11     4      0.32462094E+01      0.1619439045E-03
       11     5      0.10197049E+02      0.2552878420E-02
       11     6      0.10197049E+02      0.2552878420E-02
       11     7      0.16798754E+02      0.1180562619E-03
       11     8      0.29830051E+02      0.1819211832E-04
       11     9      0.29830051E+02      0.1819211832E-04
       11    10      0.30664520E+02      0.2363284216E-03
       11    11      0.32527591E+02      0.5166482415E-04
       11    12      0.32527591E+02      0.5166482415E-04
       11    13      0.38872196E+02      0.4760708130E-05
       11    14      0.38872196E+02      0.4760708130E-05
       11    15      0.40110854E+02     -0.4712617953E-05
       11    16      0.45705542E+02      0.1064217879E-05
       11    17      0.45705542E+02      0.1064217879E-05
       11    18      0.56786108E+02      0.3726298306E-07
       11    19      0.75703194E+02      0.2086316085E-07
       11    20      0.76879156E+02      0.1813232579E-07
       11    21      0.76879156E+02      0.1813232579E-07
       11    22      0.96558446E+02      0.2869540231E-09
       11    23      0.97927571E+02     -0.3994027353E-10
       11    24      0.12931453E+03      0.2113474570E-15
       12     1     -0.27691998E+01      0.0000000000E+00
       12     2      0.17211594E+01      0.4193861139E-03
       12     3      0.17211594E+01      0.4193861139E-03
       12     4      0.35766577E+01      0.1915104701E-03
       12     5      0.10305467E+02      0.2914405884E-02
       12     6      0.10305467E+02      0.2914405884E-02
       12     7      0.16872793E+02      0.1474087785E-03
       12     8      0.29697532E+02      0.2267014438E-04
       12     9      0.29697532E+02      0.2267014438E-04
       12    10      0.30667880E+02      0.3174034045E-03
       12    11      0.32566221E+02      0.6921175934E-04
       12    12      0.32566221E+02      0.6921175934E-04
       12    13      0.38873339E+02      0.6482135645E-05
       12    14      0.38873339E+02      0.6482135645E-05
       12    15      0.40193040E+02     -0.5287541523E-05
       12    16      0.45767511E+02      0.1246761614E-05
       12    17      0.45767511E+02      0.1246761614E-05
       12    18      0.56783921E+02      0.5739391605E-07
       12    19      0.75679263E+02      0.2775686183E-07
       12    20      0.76867992E+02      0.2133507942E-07
       12    21      0.76867992E+02      0.2133507942E-07
       12    22      0.96641447E+02      0.3529220516E-09
       12    23      0.98174007E+02     -0.3682311924E-10
       12    24      0.12933300E+03      0.2896342813E-15
       13     1     -0.27793701E+01      0.0000000000E+00
       13     2      0.18557794E+01      0.4680081145E-03
       13     3      0.18557794E+01      0.4680081145E-03
       13     4      0.39083912E+01      0.2155406195E-03
       13     5      0.10422775E+02      0.3069626526E-02
       13     6      0.10422775E+02      0.3069626526E-02
       13     7      0.16953603E+02      0.1776223853E-03
       13     8      0.29556049E+02      0.2705130581E-04
       13     9      0.29556049E+02      0.2705130581E-04
       13    10      0.30671511E+02      0.4103379795E-03
       13    11      0.32606065E+02      0.8836773554E-04
       13    12      0.32606065E+02      0.8836773554E-04
       13    13      0.38874592E+02      0.8483436391E-05
       13    14      0.38874592E+02      0.8483436391E-05
       13    15      0.40281100E+02     -0.1569379008E-04
       13    16      0.45834306E+02      0.1346263826E-05
       13    17      0.45834306E+02      0.1346263826E-05
       13    18      0.56781533E+02      0.7403122430E-07
       13    19      0.75653105E+02      0.3585624042E-07
       13    20      0.76855809E+02      0.2372185453E-07
       13    21      0.76855809E+02      0.2372185453E-07
       13    22      0.96731485E+02      0.4109357034E-09
       13    23      0.98440977E+02     -0.5796121541E-10
       13    24      0.12935328E+03      0.3857303763E-15
       14     1     -0.27903693E+01      0.0000000000E+00
       14     2      0.19855474E+01      0.5168375781E-03
       14     3      0.19855474E+01      0.5168375781E-03
       14     4      0.42413725E+01      0.2394567536E-03
       14     5      0.10548565E+02      0.3272445146E-02
       14     6      0.10548565E+02      0.3272445146E-02
       14     7      0.17041102E+02      0.2082013242E-03
       14     8      0.29406034E+02      0.3184945069E-04
       14     9      0.29406034E+02      0.3184945069E-04
       14    10      0.30675401E+02      0.5199429500E-03
       14    11      0.32646969E+02      0.1122642266E-03
       14    12      0.32646969E+02      0.1122642266E-03
       14    13      0.38875960E+02      0.1093935785E-04
       14    14      0.38875960E+02      0.1093935785E-04
       14    15      0.40374571E+02     -0.2373534411E-04
       14    16      0.45905675E+02      0.1502638942E-05
       14    17      0.45905675E+02      0.1502638942E-05
       14    18      0.56778946E+02      0.1010069768E-06
       14    19      0.75624732E+02      0.4572996473E-07
       14    20      0.76842617E+02      0.2684381071E-07
       14    21      0.76842617E+02      0.2684381071E-07
       14    22      0.96828262E+02      0.4750264411E-09
       14    23      0.98727796E+02     -0.6719465324E-10
       14    24      0.12937538E+03      0.5047192221E-15
       15     1     -0.28021840E+01      0.0000000000E+00
       15     2      0.21103639E+01      0.5280004145E-03
       15     3      0.21103639E+01      0.5280004145E-03
       15     4      0.45755342E+01      0.2621151551E-03
       15     5      0.10682389E+02      0.3513575985E-02
       15     6      0.10682389E+02      0.3513575985E-02
       15     7      0.17135194E+02      0.2372702226E-03
       15     8      0.29247879E+02      0.3623282656E-04
       15     9      0.29247879E+02      0.3623282656E-04
       15    10      0.30679536E+02      0.6334079802E-03
       15    11      0.32688823E+02      0.1401115245E-03
       15    12      0.32688823E+02      0.1401115245E-03
       15    13      0.38877452E+02      0.1379492859E-04
       15    14      0.38877452E+02      0.1379492859E-04
       15    15      0.40472975E+02     -0.4171882116E-04
       15    16      0.45981360E+02      0.1570444918E-05
       15    17      0.45981360E+02      0.1570444918E-05
       15    18      0.56776163E+02      0.1193008650E-06
       15    19      0.75594161E+02      0.5534735818E-07
       15    20      0.76828431E+02      0.3004622064E-07
       15    21      0.76828431E+02      0.3004622064E-07
       15    22      0.96931456E+02      0.5299755046E-09
       15    23      0.99033731E+02     -0.9256884373E-10
       15    24      0.12939932E+03      0.6502132955E-15
       16     1     -0.28147997E+01      0.0000000000E+00
       16     2      0.22301782E+01      0.6137430742E-03
       16     3      0.22301782E+01      0.6137430742E-03
       16     4      0.49107795E+01      0.3292414383E-03
       16     5      0.10823769E+02      0.3829656087E-02
       16     6      0.10823769E+02      0.3829656087E-02
       16     7      0.17235779E+02      0.2838544498E-03
       16     8      0.29081942E+02      0.4393141492E-04
       16     9      0.29081942E+02      0.4393141492E-04
       16    10      0.30683901E+02      0.8778739851E-03
       16    11      0.32731560E+02      0.1820097671E-03
       16    12      0.32731560E+02      0.1820097671E-03
       16    13      0.38879078E+02      0.1877899627E-04
       16    14      0.38879078E+02      0.1877899627E-04
       16    15      0.40575823E+02     -0.3998433318E-04
       16    16      0.46061099E+02      0.3073660412E-05
       16    17      0.46061099E+02      0.3073660412E-05
       16    18      0.56773186E+02      0.7626078949E-06
       16    19      0.75561408E+02      0.7380938204E-07
       16    20      0.76813263E+02      0.3466261021E-07
       16    21      0.76813263E+02      0.3466261021E-07
       16    22      0.97040737E+02      0.7316051761E-09
       16    23      0.99358007E+02     -0.6829158730E-10
       16    24      0.12942510E+03      0.9175382508E-15
       17     1     -0.28282014E+01      0.0000000000E+00
       17     2      0.23449841E+01      0.6790267453E-03
       17     3      0.23449841E+01      0.6790267453E-03
       17     4      0.52469837E+01      0.3637084846E-03
       17     5      0.10972198E+02      0.4117380071E-02
       17     6      0.10972198E+02      0.4117380071E-02
       17     7      0.17342743E+02      0.3131738314E-03
       17     8      0.28908557E+02      0.5010027448E-04
       17     9      0.28908557E+02      0.5010027448E-04
       17    10      0.30688481E+02      0.1080458943E-02
       17    11      0.32775138E+02      0.2261121958E-03
       17    12      0.32775138E+02      0.2261121958E-03
       17    13      0.38880850E+02      0.2360305288E-04
       17    14      0.38880850E+02      0.2360305288E-04
       17    15      0.40682623E+02     -0.3802899577E-05
       17    16      0.46144627E+02      0.3617457879E-05
       17    17      0.46144627E+02      0.3617457879E-05
       17    18      0.56770017E+02      0.9795502627E-06
       17    19      0.75526492E+02      0.9194382021E-07
       17    20      0.76797128E+02      0.4045563941E-07
       17    21      0.76797128E+02      0.4045563941E-07
       17    22      0.97155755E+02      0.8437120378E-09
       17    23      0.99699806E+02      0.8286114496E-10
       17    24      0.12945275E+03      0.1169563594E-14
       18     1     -0.28423729E+01      0.0000000000E+00
       18     2      0.24548155E+01      0.6909434478E-03
       18     3      0.24548155E+01      0.6909434478E-03
       18     4      0.55839959E+01      0.3837372968E-03
       18     5      0.11127142E+02      0.3718144989E-02
       18     6      0.11127142E+02      0.3718144989E-02
       18     7      0.17455968E+02      0.3348723054E-03
       18     8      0.28728033E+02      0.5360113786E-04
       18     9      0.28728033E+02      0.5360113786E-04
       18    10      0.30693259E+02      0.1289773013E-02
       18    11      0.32819536E+02      0.2733387512E-03
       18    12      0.32819536E+02      0.2733387512E-03
       18    13      0.38882786E+02      0.2887037173E-04
       18    14      0.38882786E+02      0.2887037173E-04
       18    15      0.40792880E+02     -0.5903145713E-05
       18    16      0.46231679E+02      0.4093990047E-05
       18    17      0.46231679E+02      0.4093990047E-05
       18    18      0.56766660E+02      0.1200970189E-05
       18    19      0.75489432E+02      0.1117778060E-06
       18    20      0.76780042E+02      0.4145704802E-07
       18    21      0.76780042E+02      0.4145704802E-07
       18    22      0.97276153E+02      0.9284873634E-09
       18    23      0.10005827E+03      0.1012962822E-09
       18    24      0.12948225E+03      0.1447592334E-14
       19     1     -0.28572975E+01      0.0000000000E+00
       19     2      0.25597411E+01      0.2091566596E-03
       19     3      0.25597411E+01      0.2091566596E-03
       19     4      0.59216410E+01      0.5089956006E-03
       19     5      0.11288050E+02     -0.1094211926E-01
       19     6      0.11288050E+02     -0.1094211926E-01
       19     7      0.17575326E+02      0.4116949967E-03
       19     8      0.28540668E+02      0.3623918290E-04
       19     9      0.28540668E+02      0.3623918290E-04
       19    10      0.30698219E+02      0.1785740205E-02
       19    11      0.32864751E+02      0.3311582721E-03
       19    12      0.32864751E+02      0.3311582721E-03
       19    13      0.38884903E+02      0.4140819153E-04
       19    14      0.38884903E+02      0.4140819153E-04
       19    15      0.40906101E+02     -0.2214249303E-04
       19    16      0.46321994E+02      0.6456549433E-05
       19    17      0.46321994E+02      0.6456549433E-05
       19    18      0.56763117E+02      0.2494060412E-05
       19    19      0.75450250E+02      0.4535836995E-07
       19    20      0.76762022E+02     -0.4383771756E-07
       19    21      0.76762022E+02     -0.4383771756E-07
       19    22      0.97401561E+02      0.1246280281E-08
       19    23      0.10043252E+03      0.1022846212E-09
       19    24      0.12951364E+03      0.2112184582E-14
       20     1     -0.28729575E+01      0.0000000000E+00
       20     2      0.26598593E+01      0.2907961721E-03
       20     3      0.26598593E+01      0.2907961721E-03
       20     4      0.62597220E+01      0.5853632218E-03
       20     5      0.11454355E+02     -0.1224222231E-01
       20     6      0.11454355E+02     -0.1224222231E-01
       20     7      0.17700682E+02      0.4840049075E-03
       20     8      0.28346745E+02      0.3846482466E-04
       20     9      0.28346745E+02      0.3846482466E-04
       20    10      0.30703343E+02      0.2338874584E-02
       20    11      0.32910784E+02      0.4357288559E-03
       20    12      0.32910784E+02      0.4357288559E-03
       20    13      0.38887223E+02      0.5420936422E-04
       20    14      0.38887223E+02      0.5420936422E-04
       20    15      0.41021798E+02     -0.1618657977E-04
       20    16      0.46415312E+02      0.7598923951E-05
       20    17      0.46415312E+02      0.7598923951E-05
       20    18      0.56759391E+02      0.2982354558E-05
       20    19      0.75408968E+02      0.7648726721E-07
       20    20      0.76743085E+02     -0.2575392364E-07
       20    21      0.76743085E+02     -0.2575392364E-07
       20    22      0.97531603E+02      0.1470524798E-08
       20    23      0.10082164E+03      0.1306295849E-09
       20    24      0.12954690E+03      0.2629394967E-14
       21     1     -0.28893346E+01      0.0000000000E+00
       21     2      0.27552926E+01      0.8117131881E-04
       21     3      0.27552926E+01      0.8117131881E-04
       21     4      0.65980228E+01      0.6076949367E-03
       21     5      0.11625479E+02     -0.1353987602E-01
       21     6      0.11625479E+02     -0.1353987602E-01
       21     7      0.17831895E+02      0.4845609781E-03
       21     8      0.28146536E+02      0.3951732078E-04
       21     9      0.28146536E+02      0.3951732078E-04
       21    10      0.30708613E+02      0.2705621493E-02
       21    11      0.32957646E+02      0.5196349456E-03
       21    12      0.32957646E+02      0.5196349456E-03
       21    13      0.38889769E+02      0.6472370937E-04
       21    14      0.38889769E+02      0.6472370937E-04
       21    15      0.41139494E+02     -0.1993735830E-04
       21    16      0.46511379E+02      0.8697064690E-05
       21    17      0.46511379E+02      0.8697064690E-05
       21    18      0.56755486E+02      0.3522190266E-05
       21    19      0.75365612E+02      0.1031671376E-06
       21    20      0.76723249E+02     -0.2043079207E-07
       21    21      0.76723249E+02     -0.2043079207E-07
       21    22      0.97665894E+02      0.1550855180E-08
       21    23      0.10122467E+03      0.1496194413E-09
       21    24      0.12958206E+03      0.3201541096E-14
       22     1     -0.29064098E+01      0.0000000000E+00
       22     2      0.28461825E+01     -0.6999723199E-04
       22     3      0.28461825E+01     -0.6999723199E-04
       22     4      0.69363106E+01      0.6494427178E-03
       22     5      0.11800839E+02     -0.1465626773E-01
       22     6      0.11800839E+02     -0.1465626773E-01
       22     7      0.17968819E+02      0.4854551187E-03
       22     8      0.27940309E+02      0.4257750042E-04
       22     9      0.27940309E+02      0.4257750042E-04
       22    10      0.30714009E+02      0.3310898702E-02
       22    11      0.33005349E+02      0.6575635523E-03