
&CONTROL
    calculation   = 'vc-relax'
    restart_mode  = 'from_scratch'
    prefix        = 'Landau_35'
    pseudo_dir    = '/cluster/scratch/mnoe/QE/pps'
    outdir        = './'
    forc_conv_thr = 1.0d-7
    etot_conv_thr = 1.0d-7

/
&SYSTEM
    ibrav       = 0
    nat         = 32
    ntyp        = 2
    ecutwfc     = 120
    occupations = 'smearing'
    degauss     = 7.35d-4
    tot_charge  = -0.0
/
&ELECTRONS
    conv_thr    = 1.0d-8
    diagonalization = 'david'
/


&IONS
ion_dynamics = 'bfgs'
/

&CELL
cell_dynamics = 'bfgs'
cell_dofree = 'all'
/
CELL_PARAMETERS angstrom
        7.3236460686         0.0000000000         0.0000000000
        0.0000000000         7.7495899200         0.0000000000
        0.0000000000         0.0000000000         7.3236460686

ATOMIC_SPECIES
W 183.84 W_ONCV_LDA-4.0.upf
O 15.9994 O_ONCV_LDA-3.0.upf

ATOMIC_POSITIONS crystal
W 0.26518	0.27812365482400964	-0.984029997	 0 0 0
W 0.7340299770324366	0.7218763451759904	-0.98482	 0 0 0
W 0.23482	0.22187636142396305	-0.484029997	 0 0 0
W 0.7659699500324365	0.7781236935111638	-0.48482000000000003	 0 0 0
W 0.7348199800324365	0.27812365482400964	-0.515969986	 0 0 0
W 0.265969986	0.7218763451759904	-0.51518	 0 0 0
W 0.7651799470324365	0.22187636142396305	-1.01596997	 0 0 0
W 0.234029997	0.7781236935111638	-1.015179967	 0 0 0
O 0.282340005	0.007306640635926024	-0.967820021	 0 0 0
O 0.7178200010324365	0.9926933461566468	-0.967660028	 0 0 0
O 0.217659995	0.49269338484380115	-0.467820005	 0 0 0
O 0.7821799910324365	0.5073066538433532	-0.467659995	 0 0 0
O 0.7176600080324365	0.007306640635926024	-0.532180011	 0 0 0
O 0.282180011	0.9926933461566468	-0.532340005	 0 0 0
O 0.7823399850324365	0.49269338484380115	-1.032180011	 0 0 0
O 0.217820005	0.5073066538433532	-1.032340005	 0 0 0
O 0.493260033	0.288630023	-0.5414049142715813	 0 0 0
O 0.504420032	0.7226600087195908	-0.458595028545319	 0 0 0
O 0.006739974	0.211370008	-1.0414049142715813	 0 0 0
O 0.995579968	0.7773400287195907	-0.9585950886716547	 0 0 0
O 0.506739967	0.288630023	-0.9585950886716547	 0 0 0
O 0.49558	0.7226600087195908	-1.0414049142715813	 0 0 0
O 0.993260033	0.211370008	-0.458595028545319	 0 0 0
O 0.004420012	0.7773400287195907	-0.5414049142715813	 0 0 0
O 0.7085950325128825	0.222660005	-0.25442003196756346	 0 0 0
O 0.29140489430401784	0.7113699957195908	-0.756739967	 0 0 0
O 0.7914049754222445	0.27734001	-0.754420032	 0 0 0
O 0.20859506972841863	0.7886300417195907	-0.2567399939675635	 0 0 0
O 0.29140489430401784	0.222660005	-1.2455799879675633	 0 0 0
O 0.7085950325128825	0.7113699957195908	-0.743260033	 0 0 0
O 0.20859506972841863	0.27734001	-0.74558	 0 0 0
O 0.7914049754222445	0.7886300417195907	-1.2432600529675633	 0 0 0

K_POINTS automatic
6 6 6 0 0 0
