&CONTROL
    calculation   = 'scf'
    restart_mode  = 'from_scratch'
    prefix        = 'Landau_13'
    pseudo_dir    = '/cluster/scratch/mnoe/QE/pps'
    outdir        = './'
/
&SYSTEM
    ibrav       = 0
    nat         = 32
    ntyp        = 2
    ecutwfc     = 120
    occupations = 'smearing'
    degauss     = 7.35d-4
    tot_charge  = -0.68
/
&ELECTRONS
    conv_thr    = 1.0d-8
    diagonalization = 'david'
/

CELL_PARAMETERS angstrom
   7.404792343   0.000000000   0.000000000
   0.000000000   7.676949477   0.000000000
   0.000000000   0.000000000   7.406800933

ATOMIC_SPECIES
W 183.84 W_ONCV_LDA-4.0.upf
O 15.9994 O_ONCV_LDA-3.0.upf

ATOMIC_POSITIONS crystal
W        0.243990009	0.28627479832	0.00568	
W        0.756010024	0.71372520168	0.994319964	
W        0.256009991	0.21372521082999998	0.505680036	
W        0.743989976	0.78627476732	0.494319996	
W       0.756010024	0.28627479832	0.494319996	
W       0.243990009	0.71372520168	0.505680036	
W       0.743989976	0.21372521082999998	0.994319964	
W       0.256009991	0.78627476732	0.00568	
O        0.238910011	0.01667380039	0.00177	
O        0.761089989	0.98332623314	0.998229998	
O        0.261089973	0.48332619005000005	0.501770034	
O        0.738910011	0.51667379104	0.498229998	
O        0.761089989	0.01667380039	0.498229998	
O        0.238910011	0.98332623314	0.501770034	
O        0.738910011	0.48332619005000005	0.998229998	
O        0.261089973	0.51667379104	0.00177	
O    0.501640006	0.238620002	0.4723589196	
O    0.498359994	0.761380028	0.5276410727499999	
O    0.998359961	0.261380028	0.97235893388	
O    0.001640081	0.738620002	0.027641113559999996	
O   0.498359994	0.238620002	0.027641113559999996	
O   0.501640006	0.761380028	0.97235893388	
O   0.001640081	0.261380028	0.5276410727499999	
O   0.998359961	0.738620002	0.4723589196	
O   0.72235896547	0.247519999	0.747509991	
O   0.27764109912	0.752480047	0.252489977	
O   0.77764105988	0.252480001	0.247509958	
O   0.22235893599	0.747519984	0.752490009	
O   0.27764109912	0.247519999	0.752490009	
O   0.72235896547	0.752480047	0.247509958	
O   0.22235893599	0.252480001	0.252489977	
O   0.77764105988	0.747519984	0.747509991	

K_POINTS automatic
6 6 6 0 0 0
