&CONTROL
    calculation   = 'scf'
    restart_mode  = 'from_scratch'
    prefix        = 'Landau_8'
    pseudo_dir    = '/cluster/scratch/mnoe/QE/pps'
    outdir        = './'
/
&SYSTEM
    ibrav       = 0
    nat         = 32
    ntyp        = 2
    ecutwfc     = 120
    occupations = 'smearing'
    degauss     = 7.35d-4
    tot_charge  = -1.0
/
&ELECTRONS
    conv_thr    = 1.0d-8
    diagonalization = 'david'
/

CELL_PARAMETERS angstrom
   7.348669723   0.000000000   0.000000000
   0.000000000   7.706024093   0.000000000
   0.000000000   0.000000000   7.357682206

ATOMIC_SPECIES
W 183.84 W_ONCV_LDA-4.0.upf
O 15.9994 O_ONCV_LDA-3.0.upf

ATOMIC_POSITIONS crystal
W 0.2426	0.2802693077327621	0.00699	
W 0.7574000235444123	0.7197306922672378	0.993009977	
W 0.2574	0.2197307077957121	0.506990023	
W 0.7425999595444124	0.7802692931154631	0.49301001	
W 0.7574000235444123	0.2802693077327621	0.49301001	
W 0.2426	0.7197306922672378	0.506990023	
W 0.7425999595444124	0.2197307077957121	0.993009977	
W 0.2574	0.7802692931154631	0.00699	
O 0.236350007	0.007886647434846862	0.00217	
O 0.7636499845444124	0.9921133644671944	0.997829951	
O 0.263649993	0.4921133498498954	0.502170017	
O 0.7363499985444123	0.5078866355328056	0.497830016	
O 0.7636499845444124	0.007886647434846862	0.497830016	
O 0.236350007	0.9921133644671944	0.502170017	
O 0.7363499985444123	0.4921133498498954	0.997829951	
O 0.263649993	0.5078866355328056	0.00217	
O 0.502019999	0.236	0.45342956690933023	
O 0.497980001	0.7640000239271134	0.5465704175303192	
O 0.997979968	0.263999985	0.9534295999093303	
O 0.002020001	0.7360000229271134	0.046570434293391395	
O 0.497980001	0.236	0.046570434293391395	
O 0.502019999	0.7640000239271134	0.9534295999093303	
O 0.002020001	0.263999985	0.5465704175303192	
O 0.997979968	0.7360000229271134	0.45342956690933023	
O 0.7034295909252685	0.246939995	0.7469299655444124	
O 0.2965704246350821	0.7530599979271134	0.253069993	
O 0.7965704259859068	0.25305999	0.246930007	
O 0.20342958290933028	0.7469400489271134	0.7530700175444123	
O 0.2965704246350821	0.246939995	0.7530700175444123	
O 0.7034295909252685	0.7530599979271134	0.246930007	
O 0.20342958290933028	0.25305999	0.253069993	
O 0.7965704259859068	0.7469400489271134	0.7469299655444124	

K_POINTS automatic
6 6 6 0 0 0
