&CONTROL
    calculation   = 'scf'
    restart_mode  = 'from_scratch'
    prefix        = 'Landau_4'
    pseudo_dir    = '/cluster/scratch/mnoe/QE/pps'
    outdir        = './'
/
&SYSTEM
    ibrav       = 0
    nat         = 32
    ntyp        = 2
    ecutwfc     = 120
    occupations = 'smearing'
    degauss     = 7.35d-4
    tot_charge  = -0.1
/
&ELECTRONS
    conv_thr    = 1.0d-8
    diagonalization = 'david'
/

CELL_PARAMETERS angstrom
   7.353182468   0.000000000   0.000000000
   0.000000000   7.729027350   0.000000000
   0.000000000   0.000000000   7.353657409

ATOMIC_SPECIES
W 183.84 W_ONCV_LDA-4.0.upf
O 15.9994 O_ONCV_LDA-3.0.upf

ATOMIC_POSITIONS crystal
W        0.248150008	0.28321840156	0.00175	
W        0.751850024	0.71678159844	0.998249987	
W        0.251850008	0.21678161163999998	0.50174998	
W        0.748149976	0.78321837056	0.49825002	
W       0.751850024	0.28321840156	0.49825002	
W       0.248150008	0.71678159844	0.50174998	
W       0.748149976	0.21678161163999998	0.998249987	
W       0.251850008	0.78321837056	0.00175	
O        0.246590008	0.01089040012	0.00054	
O        0.753409975	0.98910962612	0.999459962	
O        0.253409975	0.4891095914	0.500540006	
O        0.746590025	0.51089038132	0.499460027	
O        0.753409975	0.01089040012	0.499460027	
O        0.246590008	0.98910962612	0.500540006	
O        0.746590025	0.4891095914	0.999459962	
O        0.253409975	0.51089038132	0.00054	
O    0.500509989	0.246500008	0.4565612088	
O    0.499490011	0.753500008	0.543438766	
O    0.999490044	0.253499992	0.95656123604	
O    0.000509977	0.746500023	0.04343881248	
O   0.499490011	0.246500008	0.04343881248	
O   0.500509989	0.753500008	0.95656123604	
O   0.000509977	0.253499992	0.543438766	
O   0.999490044	0.746500023	0.4565612088	
O   0.70656124576	0.249239998	0.749230052	
O   0.29343879696	0.750760033	0.250769981	
O   0.79343876204	0.250760017	0.249230019	
O   0.20656122492	0.749239998	0.750769948	
O   0.29343879696	0.249239998	0.750769948	
O   0.70656124576	0.750760033	0.249230019	
O   0.20656122492	0.250760017	0.250769981	
O   0.79343876204	0.749239998	0.749230052	

K_POINTS automatic
6 6 6 0 0 0
