
&CONTROL
    calculation   = 'vc-relax'
    restart_mode  = 'from_scratch'
    prefix        = 'Landau_28'
    pseudo_dir    = '/cluster/scratch/mnoe/QE/pps'
    outdir        = './'
    forc_conv_thr = 1.0d-7
    etot_conv_thr = 1.0d-7

/
&SYSTEM
    ibrav       = 0
    nat         = 32
    ntyp        = 2
    ecutwfc     = 120
    occupations = 'smearing'
    degauss     = 7.35d-4
    tot_charge  = -0.0
/
&ELECTRONS
    conv_thr    = 1.0d-8
    diagonalization = 'david'
/


&IONS
ion_dynamics = 'bfgs'
/

&CELL
cell_dynamics = 'bfgs'
cell_dofree = 'all'
/
CELL_PARAMETERS angstrom
        7.3236460686         0.0000000000         0.0000000000
        0.0000000000         7.7495899200         0.0000000000
        0.0000000000         0.0000000000         7.3236460686

ATOMIC_SPECIES
W 183.84 W_ONCV_LDA-4.0.upf
O 15.9994 O_ONCV_LDA-3.0.upf

ATOMIC_POSITIONS crystal
W 0.237049992	0.28439409551368	0.01223	 0 0 0
W 0.762949975	0.71560590448632	0.987770032	 0 0 0
W 0.262950008	0.21560591612842	0.512229968	 0 0 0
W 0.737050025	0.78439406451368	0.48777	 0 0 0
W 0.762949975	0.28439409551368	0.48777	 0 0 0
W 0.237049992	0.71560590448632	0.512229968	 0 0 0
W 0.737050025	0.21560591612842	0.987770032	 0 0 0
W 0.262950008	0.78439406451368	0.01223	 0 0 0
O 0.226109989	0.01311508142386	0.0038	 0 0 0
O 0.773890011	0.98688494762036	0.996200004	 0 0 0
O 0.273890011	0.48688490968070003	0.503799963	 0 0 0
O 0.726109989	0.51311506625896	0.496200004	 0 0 0
O 0.773890011	0.01311508142386	0.496200004	 0 0 0
O 0.226109989	0.98688494762036	0.503799963	 0 0 0
O 0.726109989	0.48688490968070003	0.996200004	 0 0 0
O 0.273890011	0.51311506625896	0.0038	 0 0 0
O 0.503539971	0.225490008	0.4626380615544	 0 0 0
O 0.496460029	0.774510053	0.5373619199965	 0 0 0
O 0.996459996	0.274509992	0.96263808380912	 0 0 0
O 0.003540039	0.725489978	0.037361964295439996	 0 0 0
O 0.496460029	0.225490008	0.037361964295439996	 0 0 0
O 0.503539971	0.774510053	0.96263808380912	 0 0 0
O 0.003540039	0.274509992	0.5373619199965	 0 0 0
O 0.996459996	0.725489978	0.4626380615544	 0 0 0
O 0.71263810194178	0.244650006	0.744629961	 0 0 0
O 0.28736194919088	0.755349979	0.255370022	 0 0 0
O 0.78736191260912	0.255349994	0.244629978	 0 0 0
O 0.21263807777826002	0.744649991	0.755370039	 0 0 0
O 0.28736194919088	0.244650006	0.755370039	 0 0 0
O 0.71263810194178	0.755349979	0.244629978	 0 0 0
O 0.21263807777826002	0.255349994	0.255370022	 0 0 0
O 0.78736191260912	0.744649991	0.744629961	 0 0 0

K_POINTS automatic
6 6 6 0 0 0
