
&CONTROL
    calculation   = 'vc-relax'
    restart_mode  = 'from_scratch'
    prefix        = 'Landau_32'
    pseudo_dir    = '/cluster/scratch/mnoe/QE/pps'
    outdir        = './'
    forc_conv_thr = 1.0d-7
    etot_conv_thr = 1.0d-7

/
&SYSTEM
    ibrav       = 0
    nat         = 32
    ntyp        = 2
    ecutwfc     = 120
    occupations = 'smearing'
    degauss     = 7.35d-4
    tot_charge  = -0.0
/
&ELECTRONS
    conv_thr    = 1.0d-8
    diagonalization = 'david'
/


&IONS
ion_dynamics = 'bfgs'
/

&CELL
cell_dynamics = 'bfgs'
cell_dofree = 'all'
/
CELL_PARAMETERS angstrom
        7.3236460686         0.0000000000         0.0000000000
        0.0000000000         7.7495899200         0.0000000000
        0.0000000000         0.0000000000         7.3236460686

ATOMIC_SPECIES
W 183.84 W_ONCV_LDA-4.0.upf
O 15.9994 O_ONCV_LDA-3.0.upf

ATOMIC_POSITIONS crystal
W 0.2787800130000001	0.29272719148000004	0.250819999	 0 0 0
W -0.25082002000000003	0.70727280852	-0.7212200200000001	 0 0 0
W 0.22122000399999997	0.20727280912	0.750820036	 0 0 0
W 0.750819999	0.79272716048	0.7787800290000001	 0 0 0
W 0.721219999	0.29272719148000004	0.749180013	 0 0 0
W 0.25082002000000003	0.70727280852	0.72122002	 0 0 0
W -0.22122001999999996	0.20727280912	-0.7508200200000001	 0 0 0
W 0.24917999700000004	0.79272716048	0.22121999899999994	 0 0 0
O 0.281649999	0.02888320096	0.272949987	 0 0 0
O -0.27294999100000006	0.97111684796	-0.7183500170000001	 0 0 0
O 0.218350017	0.47111678720000005	0.7729499910000001	 0 0 0
O 0.772949987	0.5288832115600001	0.781649983	 0 0 0
O 0.718350013	0.02888320096	0.727049993	 0 0 0
O 0.27295000700000005	0.97111684796	0.718350001	 0 0 0
O -0.218350017	0.47111678720000005	-0.7729499910000002	 0 0 0
O 0.22705000899999994	0.5288832115600001	0.21835001299999995	 0 0 0
O 0.489809988	0.284129994	0.7557096423999999	 0 0 0
O 0.4979100379999999	0.728109904	0.7442903869999999	 0 0 0
O -0.989809988	0.21586999	1.25570962932	 0 0 0
O 0.0020899710000000134	0.7718899439999999	0.24429041584	 0 0 0
O 0.5101900119999999	0.284129994	0.24429041584	 0 0 0
O 0.502089962	0.728109904	1.25570962932	 0 0 0
O -0.010190003000000069	0.21586999	0.7442903869999999	 0 0 0
O -1.0020899620000001	0.7718899439999999	0.7557096423999999	 0 0 0
O 0.7557097070799998	0.22810998	2.0020899620000003	 0 0 0
O 0.24429040368000002	0.7158699449999999	0.4898099879999999	 0 0 0
O 0.74429035532	0.271890004	0.5020899620000001	 0 0 0
O 0.25570965935999995	0.784129903	1.989809988	 0 0 0
O 0.24429040368000002	0.22810998	0.9979100289999999	 0 0 0
O 0.75570970708	0.7158699449999999	0.510190012	 0 0 0
O 0.25570965936	0.271890004	0.4979100379999999	 0 0 0
O 0.74429035532	0.784129903	1.0101900030000002	 0 0 0

K_POINTS automatic
6 6 6 0 0 0
