
&CONTROL
    calculation   = 'vc-relax'
    restart_mode  = 'from_scratch'
    prefix        = 'Landau_32'
    pseudo_dir    = '/cluster/scratch/mnoe/QE/pps'
    outdir        = './'
    forc_conv_thr = 1.0d-7
    etot_conv_thr = 1.0d-7

/
&SYSTEM
    ibrav       = 0
    nat         = 32
    ntyp        = 2
    ecutwfc     = 120
    occupations = 'smearing'
    degauss     = 7.35d-4
    tot_charge  = -0.0
/
&ELECTRONS
    conv_thr    = 1.0d-8
    diagonalization = 'david'
/


&IONS
ion_dynamics = 'bfgs'
/

&CELL
cell_dynamics = 'bfgs'
cell_dofree = 'all'
/
CELL_PARAMETERS angstrom
        7.3236460686         0.0000000000         0.0000000000
        0.0000000000         7.7495899200         0.0000000000
        0.0000000000         0.0000000000         7.3236460686

ATOMIC_SPECIES
W 183.84 W_ONCV_LDA-4.0.upf
O 15.9994 O_ONCV_LDA-3.0.upf

ATOMIC_POSITIONS crystal
W 0.263880014	0.26410808225868526	-0.9854	 0 0 0
W 0.735399905530485	0.7358919177413147	-0.986120002	 0 0 0
W 0.236120002	0.2358919386456591	-0.4854	 0 0 0
W 0.7645998725304849	0.764108265293371	-0.486120002	 0 0 0
W 0.736119907530485	0.26410808225868526	-0.514599983	 0 0 0
W 0.264599983	0.7358919177413147	-0.5138800139999999	 0 0 0
W 0.7638799355304849	0.2358919386456591	-1.014599967	 0 0 0
W 0.2354	0.764108265293371	-1.0138800300000002	 0 0 0
O 0.27956998	0.0034883830171556123	-0.970579953	 0 0 0
O 0.7205798585304849	0.9965115059916057	-0.970429988	 0 0 0
O 0.220430004	0.4965116890262914	-0.470580002	 0 0 0
O 0.779419919530485	0.5034884940083943	-0.470430004	 0 0 0
O 0.7204298935304849	0.0034883830171556123	-0.529420014	 0 0 0
O 0.279420014	0.9965115059916057	-0.52956998	 0 0 0
O 0.7795698855304849	0.4965116890262914	-1.029420014	 0 0 0
O 0.220580002	0.5034884940083943	-1.02956998	 0 0 0
O 0.493839968	0.285319969	-0.507134081682904	 0 0 0
O 0.504040008	0.7250001375651707	-0.49286570747372116	 0 0 0
O 0.006160021	0.214680001	-1.007134081682904	 0 0 0
O 0.995959992	0.7750000395651706	-0.9928660516387475	 0 0 0
O 0.506160032	0.285319969	-0.9928660516387475	 0 0 0
O 0.495959992	0.7250001375651707	-1.007134081682904	 0 0 0
O 0.993839968	0.214680001	-0.49286570747372116	 0 0 0
O 0.004040003	0.7750000395651706	-0.507134081682904	 0 0 0
O 0.7428657859432363	0.224999988	-0.2540400974695151	 0 0 0
O 0.2571339872133886	0.7146800895651706	-0.756160032	 0 0 0
O 0.757134370995794	0.275000012	-0.754040008	 0 0 0
O 0.24286590231709596	0.7853200875651707	-0.2561601154695151	 0 0 0
O 0.2571339872133886	0.224999988	-1.245960086469515	 0 0 0
O 0.7428657859432363	0.7146800895651706	-0.7438399680000001	 0 0 0
O 0.24286590231709596	0.275000012	-0.745959992	 0 0 0
O 0.757134370995794	0.7853200875651707	-1.2438400624695152	 0 0 0

K_POINTS automatic
6 6 6 0 0 0
