
&CONTROL
    calculation   = 'vc-relax'
    restart_mode  = 'from_scratch'
    prefix        = 'Landau_6'
    pseudo_dir    = '/cluster/scratch/mnoe/QE/pps'
    outdir        = './'
    forc_conv_thr = 1.0d-7
    etot_conv_thr = 1.0d-7

/
&SYSTEM
    ibrav       = 0
    nat         = 32
    ntyp        = 2
    ecutwfc     = 120
    occupations = 'smearing'
    degauss     = 7.35d-4
    tot_charge  = -0.0
/
&ELECTRONS
    conv_thr    = 1.0d-8
    diagonalization = 'david'
/


&IONS
ion_dynamics = 'bfgs'
/

&CELL
cell_dynamics = 'bfgs'
cell_dofree = 'all'
/
CELL_PARAMETERS angstrom
        7.3236460686         0.0000000000         0.0000000000
        0.0000000000         7.7495899200         0.0000000000
        0.0000000000         0.0000000000         7.3236460686

ATOMIC_SPECIES
W 183.84 W_ONCV_LDA-4.0.upf
O 15.9994 O_ONCV_LDA-3.0.upf

ATOMIC_POSITIONS crystal
W 0.25	0.28102362331537506	0.0	 0 0 0
W 0.7499999955540939	0.718976376684625	0.0	 0 0 0
W 0.25	0.21897639196249408	0.5	 0 0 0
W 0.7499999955540939	0.781023600929318	0.5	 0 0 0
W 0.7499999955540939	0.28102362331537506	0.5	 0 0 0
W 0.25	0.718976376684625	0.5	 0 0 0
W 0.7499999955540939	0.21897639196249408	0.0	 0 0 0
W 0.25	0.781023600929318	0.0	 0 0 0
O 0.25	0.008092145369864865	0.0	 0 0 0
O 0.7499999955540939	0.9919078717948835	0.0	 0 0 0
O 0.25	0.4919078494088264	0.5	 0 0 0
O 0.7499999955540939	0.5080921282051165	0.5	 0 0 0
O 0.7499999955540939	0.008092145369864865	0.5	 0 0 0
O 0.25	0.9919078717948835	0.5	 0 0 0
O 0.7499999955540939	0.4919078494088264	0.0	 0 0 0
O 0.25	0.5080921282051165	0.0	 0 0 0
O 0.5	0.25	0.4515851168927311	 0 0 0
O 0.5	0.7499999891680369	0.5484148592769501	 0 0 0
O 0.0	0.25	0.9515851498927311	 0 0 0
O 0.0	0.7499999891680369	0.048414891326933295	 0 0 0
O 0.5	0.25	0.048414891326933295	 0 0 0
O 0.5	0.7499999891680369	0.9515851498927311	 0 0 0
O 0.0	0.25	0.5484148592769501	 0 0 0
O 0.0	0.7499999891680369	0.4515851168927311	 0 0 0
O 0.701585145168956	0.25	0.7499999955540939	 0 0 0
O 0.29841487866136285	0.7499999891680369	0.25	 0 0 0
O 0.7984148637228562	0.25	0.25	 0 0 0
O 0.20158513289273114	0.7499999891680369	0.7499999955540939	 0 0 0
O 0.29841487866136285	0.25	0.7499999955540939	 0 0 0
O 0.701585145168956	0.7499999891680369	0.25	 0 0 0
O 0.20158513289273114	0.25	0.25	 0 0 0
O 0.7984148637228562	0.7499999891680369	0.7499999955540939	 0 0 0

K_POINTS automatic
6 6 6 0 0 0
