
&CONTROL
    calculation   = 'vc-relax'
    restart_mode  = 'from_scratch'
    prefix        = 'Landau_19'
    pseudo_dir    = '/cluster/scratch/mnoe/QE/pps'
    outdir        = './'
    forc_conv_thr = 1.0d-7
    etot_conv_thr = 1.0d-7

/
&SYSTEM
    ibrav       = 0
    nat         = 32
    ntyp        = 2
    ecutwfc     = 120
    occupations = 'smearing'
    degauss     = 7.35d-4
    tot_charge  = -0.0
/
&ELECTRONS
    conv_thr    = 1.0d-8
    diagonalization = 'david'
/


&IONS
ion_dynamics = 'bfgs'
/

&CELL
cell_dynamics = 'bfgs'
cell_dofree = 'all'
/
CELL_PARAMETERS angstrom
        7.3236460686         0.0000000000         0.0000000000
        0.0000000000         7.7495899200         0.0000000000
        0.0000000000         0.0000000000         7.3236460686

ATOMIC_SPECIES
W 183.84 W_ONCV_LDA-4.0.upf
O 15.9994 O_ONCV_LDA-3.0.upf

ATOMIC_POSITIONS crystal
W 0.25	0.27921146733202096	0.0	 0 0 0
W 0.7499999859212975	0.720788532667979	0.0	 0 0 0
W 0.25	0.22078854854789795	0.5	 0 0 0
W 0.7499999859212975	0.779211463609507	0.5	 0 0 0
W 0.7499999859212975	0.27921146733202096	0.5	 0 0 0
W 0.25	0.720788532667979	0.5	 0 0 0
W 0.7499999859212975	0.22078854854789795	0.0	 0 0 0
W 0.25	0.779211463609507	0.0	 0 0 0
O 0.25	0.007598460337905408	0.0	 0 0 0
O 0.7499999859212975	0.9924015441837976	0.0	 0 0 0
O 0.25	0.49240154046128365	0.5	 0 0 0
O 0.7499999859212975	0.5075984558162024	0.5	 0 0 0
O 0.7499999859212975	0.007598460337905408	0.5	 0 0 0
O 0.25	0.9924015441837976	0.5	 0 0 0
O 0.7499999859212975	0.49240154046128365	0.0	 0 0 0
O 0.25	0.5075984558162024	0.0	 0 0 0
O 0.5	0.25	0.45601619482698186	 0 0 0
O 0.5	0.7499999981987836	0.543983801210342	 0 0 0
O 0.0	0.25	0.9560162278269818	 0 0 0
O 0.0	0.7499999981987836	0.04398379653528877	 0 0 0
O 0.5	0.25	0.04398379653528877	 0 0 0
O 0.5	0.7499999981987836	0.9560162278269818	 0 0 0
O 0.0	0.25	0.543983801210342	 0 0 0
O 0.0	0.7499999981987836	0.45601619482698186	 0 0 0
O 0.7060162128683605	0.25	0.7499999859212975	 0 0 0
O 0.2939837910943156	0.7499999981987836	0.25	 0 0 0
O 0.7939838152890445	0.25	0.25	 0 0 0
O 0.20601621082698188	0.7499999981987836	0.7499999859212975	 0 0 0
O 0.2939837910943156	0.25	0.7499999859212975	 0 0 0
O 0.7060162128683605	0.7499999981987836	0.25	 0 0 0
O 0.20601621082698188	0.25	0.25	 0 0 0
O 0.7939838152890445	0.7499999981987836	0.7499999859212975	 0 0 0

K_POINTS automatic
6 6 6 0 0 0
