&CONTROL
    calculation   = 'scf'
    restart_mode  = 'from_scratch'
    prefix        = 'Landau_10'
    pseudo_dir    = '/cluster/scratch/mnoe/QE/pps'
    outdir        = './'
/
&SYSTEM
    ibrav       = 0
    nat         = 32
    ntyp        = 2
    ecutwfc     = 120
    occupations = 'smearing'
    degauss     = 7.35d-4
    tot_charge  = -1.0
/
&ELECTRONS
    conv_thr    = 1.0d-8
    diagonalization = 'david'
/

CELL_PARAMETERS angstrom
   7.400867550   0.000000000   0.000000000
   0.000000000   7.647060842   0.000000000
   0.000000000   0.000000000   7.410359278

ATOMIC_SPECIES
W 183.84 W_ONCV_LDA-4.0.upf
O 15.9994 O_ONCV_LDA-3.0.upf

ATOMIC_POSITIONS crystal
W 0.23638744148298596	0.2769642415056971	0.004115240478024905	
W 0.7548874151994663	0.7230357584943029	-0.01335474902197512	
W 0.26361255851701404	0.22303577512081413	0.5041152412328361	
W 0.745112538495664	0.7769642609275462	0.4866452302328361	
W 0.7636125214956639	0.2769642415056971	0.49588475876716387	
W 0.24511255851701405	0.7230357584943029	0.5133547697671639	
W 0.7363874321994663	0.22303577512081413	-0.004115228978024932	
W 0.254887441482986	0.7769642609275462	0.013354760521975094	
O 0.23157902851032164	0.006986249378098635	-0.005807831790637281	
O 0.7657089909861414	-0.006986260534835162	-0.01123783529063726	
O 0.26842095524901777	0.49301375888701404	0.4941921469687021	
O 0.7342909552174792	0.5069862605348352	0.48876215646870214	
O 0.7684209192174792	0.006986249378098635	0.5058078405267696	
O 0.23429095024901778	-0.006986260534835162	0.5112378310267697	
O 0.7315790269861414	0.49301375888701404	0.005807828290637302	
O 0.26570903351032166	0.5069862605348352	0.011237831790637282	
O 0.5044453297974295	0.23058716321558897	0.4615111041304688	
O 0.49938532179742956	0.7655971828590128	0.5384889165444028	
O -0.004445330065825405	0.269412821784411	0.9615111371304688	
O 0.0006146694341746029	0.7344028811690614	0.0384888663272158	
O 0.49555467020257044	0.23058716321558897	0.0384888663272158	
O 0.5006146782025704	0.7655971828590128	0.9615111371304688	
O 0.004445304797429584	0.269412821784411	0.5384889165444028	
O -0.0006146947025704233	0.7344028811690614	0.4615111041304688	
O 0.7115111094797774	0.25492258498814674	0.7474285591705324	
O 0.28848886984535094	0.7625626266230802	0.2550985629540521	
O 0.788488942568583	0.2450774075203436	0.24742860945405207	
O 0.2115111201304688	0.737437437655277	0.7550985451705324	
O 0.28848886984535094	0.25492258498814674	0.7525714095076171	
O 0.7115111094797774	0.7625626266230802	0.24490146954594794	
O 0.2115111201304688	0.2450774075203436	0.25257142304594793	
O 0.788488942568583	0.737437437655277	0.7449014235076171	

K_POINTS automatic
6 6 6 0 0 0
