
&CONTROL
    calculation   = 'vc-relax'
    restart_mode  = 'from_scratch'
    prefix        = 'Landau_3'
    pseudo_dir    = '/cluster/scratch/mnoe/QE/pps'
    outdir        = './'
    forc_conv_thr = 1.0d-7
    etot_conv_thr = 1.0d-7

/
&SYSTEM
    ibrav       = 0
    nat         = 32
    ntyp        = 2
    ecutwfc     = 120
    occupations = 'smearing'
    degauss     = 7.35d-4
    tot_charge  = -0.0
/
&ELECTRONS
    conv_thr    = 1.0d-8
    diagonalization = 'david'
/


&IONS
ion_dynamics = 'bfgs'
/

&CELL
cell_dynamics = 'bfgs'
cell_dofree = 'all'
/
CELL_PARAMETERS angstrom
        7.3236460686         0.0000000000         0.0000000000
        0.0000000000         7.7495899200         0.0000000000
        0.0000000000         0.0000000000         7.3236460686

ATOMIC_SPECIES
W 183.84 W_ONCV_LDA-4.0.upf
O 15.9994 O_ONCV_LDA-3.0.upf

ATOMIC_POSITIONS crystal
W 0.248610007	0.2815617476373929	0.00131	 0 0 0
W 0.7513900074145773	0.718438252362607	0.998690014	 0 0 0
W 0.251389976	0.218438267461696	0.501309986	 0 0 0
W 0.7486099894145773	0.7815617197091493	0.498690014	 0 0 0
W 0.7513900074145773	0.2815617476373929	0.498690014	 0 0 0
W 0.248610007	0.718438252362607	0.501309986	 0 0 0
W 0.7486099894145773	0.218438267461696	0.998690014	 0 0 0
W 0.251389976	0.7815617197091493	0.00131	 0 0 0
O 0.247439995	0.008238746394033786	0.00041	 0 0 0
O 0.7525600034145773	0.991761274525099	0.99958999	 0 0 0
O 0.252560021	0.4917612465968554	0.50041001	 0 0 0
O 0.7474399934145773	0.508238725474901	0.499590023	 0 0 0
O 0.7525600034145773	0.008238746394033786	0.499590023	 0 0 0
O 0.247439995	0.991761274525099	0.50041001	 0 0 0
O 0.7474399934145773	0.4917612465968554	0.99958999	 0 0 0
O 0.252560021	0.508238725474901	0.00041	 0 0 0
O 0.500379993	0.247369999	0.4502692970454994	 0 0 0
O 0.499620007	0.7526300024863337	0.5497306732244348	 0 0 0
O 0.999620007	0.252630001	0.9502693300454994	 0 0 0
O 0.000380039	0.7473700304863338	0.04973071618001088	 0 0 0
O 0.499620007	0.247369999	0.04973071618001088	 0 0 0
O 0.500379993	0.7526300024863337	0.9502693300454994	 0 0 0
O 0.000380039	0.252630001	0.5497306732244348	 0 0 0
O 0.999620007	0.7473700304863338	0.4502692970454994	 0 0 0
O 0.7002693283609879	0.249429995	0.7494199814145773	 0 0 0
O 0.2997307013690779	0.7505700224863338	0.250580017	 0 0 0
O 0.7997306748098575	0.250570005	0.249419934	 0 0 0
O 0.20026931304549944	0.7494300114863337	0.7505800154145773	 0 0 0
O 0.2997307013690779	0.249429995	0.7505800154145773	 0 0 0
O 0.7002693283609879	0.7505700224863338	0.249419934	 0 0 0
O 0.20026931304549944	0.250570005	0.250580017	 0 0 0
O 0.7997306748098575	0.7494300114863337	0.7494199814145773	 0 0 0

K_POINTS automatic
6 6 6 0 0 0
