
&CONTROL
    calculation   = 'vc-relax'
    restart_mode  = 'from_scratch'
    prefix        = 'Landau_19'
    pseudo_dir    = '/cluster/scratch/mnoe/QE/pps'
    outdir        = './'
    forc_conv_thr = 1.0d-7
    etot_conv_thr = 1.0d-7

/
&SYSTEM
    ibrav       = 0
    nat         = 32
    ntyp        = 2
    ecutwfc     = 120
    occupations = 'smearing'
    degauss     = 7.35d-4
    tot_charge  = -0.0
/
&ELECTRONS
    conv_thr    = 1.0d-8
    diagonalization = 'david'
/


&IONS
ion_dynamics = 'bfgs'
/

&CELL
cell_dynamics = 'bfgs'
cell_dofree = 'all'
/
CELL_PARAMETERS angstrom
        7.3236460686         0.0000000000         0.0000000000
        0.0000000000         7.7495899200         0.0000000000
        0.0000000000         0.0000000000         7.3236460686

ATOMIC_SPECIES
W 183.84 W_ONCV_LDA-4.0.upf
O 15.9994 O_ONCV_LDA-3.0.upf

ATOMIC_POSITIONS crystal
W 0.24780561197309717	0.27439854831616933	0.002072214109425984	 0 0 0
W 0.7521943463479175	0.7256014516838307	-0.002072211381267903	 0 0 0
W 0.25219438802690286	0.2256014691627381	0.5020722152955817	 0 0 0
W 0.7478055743270412	0.7743985941623032	0.49792778470441834	 0 0 0
W 0.7521943463479175	0.27439854831616933	0.49792778470441834	 0 0 0
W 0.24780561197309717	0.7256014516838307	0.5020722152955817	 0 0 0
W 0.7478055743270412	0.2256014691627381	-0.002072211381267903	 0 0 0
W 0.25219438802690286	0.7743985941623032	0.002072214109425984	 0 0 0
O 0.24595164908728442	0.006287278463947117	0.0006440825397882401	 0 0 0
O 0.754048305438032	-0.00628730752100547	-0.0006440833700972183	 0 0 0
O 0.2540483490148665	0.4937127383251283	0.5006440794557835	 0 0 0
O 0.7459516152369267	0.5062873075210055	0.49935591662990275	 0 0 0
O 0.754048305438032	0.006287278463947117	0.49935591662990275	 0 0 0
O 0.24595164908728442	-0.00628730752100547	0.5006440794557835	 0 0 0
O 0.7459516152369267	0.4937127383251283	-0.0006440833700972183	 0 0 0
O 0.2540483490148665	0.5062873075210055	0.0006440825397882401	 0 0 0
O 0.5006001957281747	0.24584726904716322	0.4677847287977733	 0 0 0
O 0.4993998042718253	0.7541527549156835	0.5322153200061754	 0 0 0
O -0.0006001996424885149	0.2541527273943697	0.9677847617977733	 0 0 0
O 0.0006001897973962843	0.7458472965684769	0.03221521779281552	 0 0 0
O 0.4993998042718253	0.24584726904716322	0.03221521779281552	 0 0 0
O 0.5006001957281747	0.7541527549156835	0.9677847617977733	 0 0 0
O 0.0006001897973962843	0.2541527273943697	0.5322153200061754	 0 0 0
O -0.0006001996424885149	0.7458472965684769	0.4677847287977733	 0 0 0
O 0.7177847196563452	0.24909377728990478	0.7490901805837004	 0 0 0
O 0.28221523153970596	0.7509062503500246	0.25090977975377904	 0 0 0
O 0.782215359668696	0.2509062227100952	0.24909022795623292	 0 0 0
O 0.21778474479777332	0.7490938012527515	0.7509097400912584	 0 0 0
O 0.28221523153970596	0.24909377728990478	0.7509097400912584	 0 0 0
O 0.7177847196563452	0.7509062503500246	0.24909022795623292	 0 0 0
O 0.21778474479777332	0.2509062227100952	0.25090977975377904	 0 0 0
O 0.782215359668696	0.7490938012527515	0.7490901805837004	 0 0 0

K_POINTS automatic
6 6 6 0 0 0
