
&CONTROL
    calculation   = 'vc-relax'
    restart_mode  = 'from_scratch'
    prefix        = 'Landau_20'
    pseudo_dir    = '/cluster/scratch/mnoe/QE/pps'
    outdir        = './'
    forc_conv_thr = 1.0d-7
    etot_conv_thr = 1.0d-7

/
&SYSTEM
    ibrav       = 0
    nat         = 32
    ntyp        = 2
    ecutwfc     = 120
    occupations = 'smearing'
    degauss     = 7.35d-4
    tot_charge  = -0.0
/
&ELECTRONS
    conv_thr    = 1.0d-8
    diagonalization = 'david'
/


&IONS
ion_dynamics = 'bfgs'
/

&CELL
cell_dynamics = 'bfgs'
cell_dofree = 'all'
/
CELL_PARAMETERS angstrom
        7.3236460686         0.0000000000         0.0000000000
        0.0000000000         7.7495899200         0.0000000000
        0.0000000000         0.0000000000         7.3236460686

ATOMIC_SPECIES
W 183.84 W_ONCV_LDA-4.0.upf
O 15.9994 O_ONCV_LDA-3.0.upf

ATOMIC_POSITIONS crystal
W 0.2213206967936339	0.27401539607301895	0.006690560948724779	 0 0 0
W 0.758320657322616	0.725984603926981	-0.028249418051275274	 0 0 0
W 0.27867930320636614	0.22598462153318255	0.5066905610432842	 0 0 0
W 0.7416792726804106	0.7740154458652692	0.47175053904328423	 0 0 0
W 0.7786792386804106	0.27401539607301895	0.4933094389567157	 0 0 0
W 0.24167930320636613	0.725984603926981	0.5282494609567158	 0 0 0
W 0.721320691322616	0.22598462153318255	-0.006690537948724833	 0 0 0
W 0.2583206967936339	0.7740154458652692	0.02824944105127522	 0 0 0
O 0.21270606869075048	0.006182896429981736	-0.014456607511486985	 0 0 0
O 0.7809660039915246	-0.006182928160215701	-0.025316614511486944	 0 0 0
O 0.2872938960810415	0.49381712163203445	0.48554334726030496	 0 0 0
O 0.7190339085313129	0.5061829281602157	0.47468336626030494	 0 0 0
O 0.7872938365313129	0.006182896429981736	0.5144566290624625	 0 0 0
O 0.2190338860810415	-0.006182928160215701	0.5253166100624626	 0 0 0
O 0.7127060759915246	0.49381712163203445	0.014456600511487026	 0 0 0
O 0.2809660786907505	0.5061829281602157	0.025316607511486986	 0 0 0
O 0.5095291015273357	0.21053838066970765	0.4687216114202835	 0 0 0
O 0.4994090855273357	0.7805584265028266	0.5312784415843698	 0 0 0
O -0.009529096653592608	0.2894615893302923	0.9687216444202835	 0 0 0
O 0.000590902346407407	0.7194417172262734	0.03127833160607116	 0 0 0
O 0.4904708984726643	0.21053838066970765	0.03127833160607116	 0 0 0
O 0.5005909144726642	0.7805584265028266	0.9687216444202835	 0 0 0
O 0.009529051527335696	0.2894615893302923	0.5312784415843698	 0 0 0
O -0.0005909474726643188	0.7194417172262734	0.4687216114202835	 0 0 0
O 0.7187216001148561	0.2627593646390091	0.7452783214217703	 0 0 0
O 0.28127834688049047	0.7780394569523171	0.26061831589278817	 0 0 0
O 0.7812784832835956	0.23724061788080172	0.24527840889278818	 0 0 0
O 0.21872162742028353	0.7219606871941098	0.7606182934217703	 0 0 0
O 0.28127834688049047	0.2627593646390091	0.7547216435416345	 0 0 0
O 0.7187216001148561	0.7780394569523171	0.23938174910721186	 0 0 0
O 0.21872162742028353	0.23724061788080172	0.25472165610721187	 0 0 0
O 0.7812784832835956	0.7219606871941098	0.7393816715416345	 0 0 0

K_POINTS automatic
6 6 6 0 0 0
