
&CONTROL
    calculation   = 'vc-relax'
    restart_mode  = 'from_scratch'
    prefix        = 'Landau_11'
    pseudo_dir    = '/cluster/scratch/mnoe/QE/pps'
    outdir        = './'
    forc_conv_thr = 1.0d-7
    etot_conv_thr = 1.0d-7

/
&SYSTEM
    ibrav       = 0
    nat         = 32
    ntyp        = 2
    ecutwfc     = 120
    occupations = 'smearing'
    degauss     = 7.35d-4
    tot_charge  = -0.0
/
&ELECTRONS
    conv_thr    = 1.0d-8
    diagonalization = 'david'
/


&IONS
ion_dynamics = 'bfgs'
/

&CELL
cell_dynamics = 'bfgs'
cell_dofree = 'all'
/
CELL_PARAMETERS angstrom
        7.3236460686         0.0000000000         0.0000000000
        0.0000000000         7.7495899200         0.0000000000
        0.0000000000         0.0000000000         7.3236460686

ATOMIC_SPECIES
W 183.84 W_ONCV_LDA-4.0.upf
O 15.9994 O_ONCV_LDA-3.0.upf

ATOMIC_POSITIONS crystal
W 0.23502618563128455	0.2764746653562668	0.004526764525827396	 0 0 0
W 0.7553761567194129	0.7235253346437333	-0.014690223924172631	 0 0 0
W 0.2649738143687155	0.22352535143289554	0.5045267653561197	 0 0 0
W 0.7446237923452304	0.7764746898203009	0.48530975325611975	 0 0 0
W 0.7649737736452303	0.2764746653562668	0.49547323464388027	 0 0 0
W 0.24462381436871547	0.7235253346437333	0.5146902467438803	 0 0 0
W 0.735026175419413	0.22352535143289554	-0.004526751875827425	 0 0 0
W 0.25537618563128456	0.7764746898203009	0.014690236574172602	 0 0 0
O 0.2297369313613538	0.006852874315908498	-0.0063886149697010095	 0 0 0
O 0.7672798900847556	-0.00685288888831868	-0.012361618819700985	 0 0 0
O 0.27026305077391954	0.49314713557571543	0.49361136166557235	 0 0 0
O 0.7327200507392272	0.5068528888883187	0.4876383721155723	 0 0 0
O 0.7702630111392271	0.006852874315908498	0.5063886245794467	 0 0 0
O 0.23272004527391957	-0.00685288888831868	0.5123616141294466	 0 0 0
O 0.7297369296847556	0.49314713557571543	0.006388611119701032	 0 0 0
O 0.2672799368613538	0.5068528888883187	0.012361614969701009	 0 0 0
O 0.5048898627771725	0.22864587953714788	0.46270821414351565	 0 0 0
O 0.49932385397717255	0.7671569026449141	0.5372918118988431	 0 0 0
O -0.004889863072407945	0.2713541039628521	0.9627082471435157	 0 0 0
O 0.0006761363775920634	0.7328431707859676	0.037291751759937375	 0 0 0
O 0.49511013722282743	0.22864587953714788	0.037291751759937375	 0 0 0
O 0.5006761460228274	0.7671569026449141	0.9627082471435157	 0 0 0
O 0.004889835277172542	0.2713541039628521	0.5372918118988431	 0 0 0
O -0.0006761641728274658	0.7328431707859676	0.46270821414351565	 0 0 0
O 0.7127082167277551	0.2554148434869614	0.7471714150875857	 0 0 0
O 0.287291757229886	0.7638188907853882	0.2556084192494573	 0 0 0
O 0.7872918405254413	0.24458514827237796	0.24717147039945728	 0 0 0
O 0.2127082301435157	0.7361811829208047	0.7556083996875858	 0 0 0
O 0.287291757229886	0.2554148434869614	0.7528285504583788	 0 0 0
O 0.7127082167277551	0.7638188907853882	0.24439161650054272	 0 0 0
O 0.2127082301435157	0.24458514827237796	0.25282856535054277	 0 0 0
O 0.7872918405254413	0.7361811829208047	0.7443915658583787	 0 0 0

K_POINTS automatic
6 6 6 0 0 0
