
&CONTROL
    calculation   = 'vc-relax'
    restart_mode  = 'from_scratch'
    prefix        = 'Landau_9'
    pseudo_dir    = '/cluster/scratch/mnoe/QE/pps'
    outdir        = './'
    forc_conv_thr = 1.0d-7
    etot_conv_thr = 1.0d-7

/
&SYSTEM
    ibrav       = 0
    nat         = 32
    ntyp        = 2
    ecutwfc     = 120
    occupations = 'smearing'
    degauss     = 7.35d-4
    tot_charge  = -0.0
/
&ELECTRONS
    conv_thr    = 1.0d-8
    diagonalization = 'david'
/


&IONS
ion_dynamics = 'bfgs'
/

&CELL
cell_dynamics = 'bfgs'
cell_dofree = 'all'
/
CELL_PARAMETERS angstrom
        7.3236460686         0.0000000000         0.0000000000
        0.0000000000         7.7495899200         0.0000000000
        0.0000000000         0.0000000000         7.3236460686

ATOMIC_SPECIES
W 183.84 W_ONCV_LDA-4.0.upf
O 15.9994 O_ONCV_LDA-3.0.upf

ATOMIC_POSITIONS crystal
W 0.245840001	0.28345149501753747	0.00393	 0 0 0
W 0.754159999	0.7165485049824625	0.996070041	 0 0 0
W 0.254159983	0.21654851787359278	0.503929959	 0 0 0
W 0.745840001	0.7834514640175375	0.496070009	 0 0 0
W 0.754159999	0.28345149501753747	0.496070009	 0 0 0
W 0.245840001	0.7165485049824625	0.503929959	 0 0 0
W 0.745840001	0.21654851787359278	0.996070041	 0 0 0
W 0.254159983	0.7834514640175375	0.00393	 0 0 0
O 0.242320003	0.011331466143528111	0.00122	 0 0 0
O 0.757680014	0.9886685606524375	0.998779998	 0 0 0
O 0.257679997	0.48866852529410665	0.501220002	 0 0 0
O 0.742319986	0.5113314480642241	0.498779998	 0 0 0
O 0.757680014	0.011331466143528111	0.498779998	 0 0 0
O 0.242320003	0.9886685606524375	0.501220002	 0 0 0
O 0.742319986	0.48866852529410665	0.998779998	 0 0 0
O 0.257679997	0.5113314480642241	0.00122	 0 0 0
O 0.501140012	0.242119995	0.4577660075616467	 0 0 0
O 0.498859988	0.757879944	0.5422339685767888	 0 0 0
O 0.998860021	0.257880005	0.9577660338132635	 0 0 0
O 0.001139998	0.742120025	0.04223401462437124	 0 0 0
O 0.498859988	0.242119995	0.04223401462437124	 0 0 0
O 0.501140012	0.757879944	0.9577660338132635	 0 0 0
O 0.001139998	0.257880005	0.5422339685767888	 0 0 0
O 0.998860021	0.742120025	0.4577660075616467	 0 0 0
O 0.7077660452011602	0.248280001	0.748269977	 0 0 0
O 0.29223399918673654	0.751719999	0.251730023	 0 0 0
O 0.7922339639372754	0.251720015	0.248270042	 0 0 0
O 0.207766023702238	0.74827997	0.751730023	 0 0 0
O 0.29223399918673654	0.248280001	0.751730023	 0 0 0
O 0.7077660452011602	0.751719999	0.248270042	 0 0 0
O 0.207766023702238	0.251720015	0.251730023	 0 0 0
O 0.7922339639372754	0.74827997	0.748269977	 0 0 0

K_POINTS automatic
6 6 6 0 0 0
