
&CONTROL
    calculation   = 'vc-relax'
    restart_mode  = 'from_scratch'
    prefix        = 'Landau_19'
    pseudo_dir    = '/cluster/scratch/mnoe/QE/pps'
    outdir        = './'
    forc_conv_thr = 1.0d-7
    etot_conv_thr = 1.0d-7

/
&SYSTEM
    ibrav       = 0
    nat         = 32
    ntyp        = 2
    ecutwfc     = 120
    occupations = 'smearing'
    degauss     = 7.35d-4
    tot_charge  = -0.0
/
&ELECTRONS
    conv_thr    = 1.0d-8
    diagonalization = 'david'
/


&IONS
ion_dynamics = 'bfgs'
/

&CELL
cell_dynamics = 'bfgs'
cell_dofree = 'all'
/
CELL_PARAMETERS angstrom
        7.3236460686         0.0000000000         0.0000000000
        0.0000000000         7.7495899200         0.0000000000
        0.0000000000         0.0000000000         7.3236460686

ATOMIC_SPECIES
W 183.84 W_ONCV_LDA-4.0.upf
O 15.9994 O_ONCV_LDA-3.0.upf

ATOMIC_POSITIONS crystal
W 0.25	0.27429834097976546	0.0	 0 0 0
W 0.7499999598048117	0.7257016590202345	0.0	 0 0 0
W 0.25	0.22570167653243367	0.5	 0 0 0
W 0.7499999598048117	0.7742983878579428	0.5	 0 0 0
W 0.7499999598048117	0.27429834097976546	0.5	 0 0 0
W 0.25	0.7257016590202345	0.5	 0 0 0
W 0.7499999598048117	0.22570167653243367	0.0	 0 0 0
W 0.25	0.7742983878579428	0.0	 0 0 0
O 0.25	0.0062599790137179276	0.0	 0 0 0
O 0.7499999598048117	0.9937399912300974	0.0	 0 0 0
O 0.25	0.49374003810827477	0.5	 0 0 0
O 0.7499999598048117	0.5062600087699026	0.5	 0 0 0
O 0.7499999598048117	0.0062599790137179276	0.5	 0 0 0
O 0.25	0.9937399912300974	0.5	 0 0 0
O 0.7499999598048117	0.49374003810827477	0.0	 0 0 0
O 0.25	0.5062600087699026	0.0	 0 0 0
O 0.5	0.25	0.46802975545180736	 0 0 0
O 0.5	0.750000022682989	0.5319702944507684	 0 0 0
O 0.0	0.25	0.9680297884518074	 0 0 0
O 0.0	0.750000022682989	0.031970190206613035	 0 0 0
O 0.5	0.25	0.031970190206613035	 0 0 0
O 0.5	0.750000022682989	0.9680297884518074	 0 0 0
O 0.0	0.25	0.5319702944507684	 0 0 0
O 0.0	0.750000022682989	0.46802975545180736	 0 0 0
O 0.7180297457444199	0.25	0.7499999598048117	 0 0 0
O 0.2819702043530042	0.750000022682989	0.25	 0 0 0
O 0.7819703346459567	0.25	0.25	 0 0 0
O 0.2180297714518074	0.750000022682989	0.7499999598048117	 0 0 0
O 0.2819702043530042	0.25	0.7499999598048117	 0 0 0
O 0.7180297457444199	0.750000022682989	0.25	 0 0 0
O 0.2180297714518074	0.25	0.25	 0 0 0
O 0.7819703346459567	0.750000022682989	0.7499999598048117	 0 0 0

K_POINTS automatic
6 6 6 0 0 0
