
&CONTROL
    calculation   = 'vc-relax'
    restart_mode  = 'from_scratch'
    prefix        = 'Landau_19'
    pseudo_dir    = '/cluster/scratch/mnoe/QE/pps'
    outdir        = './'
    forc_conv_thr = 1.0d-7
    etot_conv_thr = 1.0d-7

/
&SYSTEM
    ibrav       = 0
    nat         = 16
    ntyp        = 2
    ecutwfc     = 120
    occupations = 'smearing'
    degauss     = 7.35d-4
    tot_charge  = -0.0
/
&ELECTRONS
    conv_thr    = 1.0d-8
    diagonalization = 'david'
/


&IONS
ion_dynamics = 'bfgs'
/

&CELL
cell_dynamics = 'bfgs'
cell_dofree = 'all'
/
CELL_PARAMETERS angstrom
        5.177959919             0.0             0.0
        0.0             5.177959919             0.0
        0.0             0.0            7.7496299744

ATOMIC_SPECIES
W 183.84 W_ONCV_LDA-4.0.upf
O 15.9994 O_ONCV_LDA-3.0.upf

ATOMIC_POSITIONS crystal
W     0.2499999999999516	0.24999999999991376	0.2116695614040138	 0 0 0
W     0.7500000229999576	0.750000022999984	0.7883304535941493	 0 0 0
W     0.7500000230000141	0.7500000230000368	0.28833045359598514	 0 0 0
W     0.24999999999994274	0.25000000000002726	0.7116695464058508	 0 0 0
O W   0.24999999999979441	0.24999999999993489	0.4794631543439057	 0 0 0
O W   0.7500000229999944	0.7500000230002452	0.5205368456589181	 0 0 0
O W   0.7500000229999026	0.7500000230000143	0.02053685865609819	 0 0 0
O W   0.2499999999998241	0.25000000000004086	0.9794631543410754	 0 0 0
O     0.48276282758201455	0.5172371264179305	0.2500000000000318	 0 0 0
O     0.5172371724382661	0.48276287356175684	0.7499999999999989	 0 0 0
O     0.017237155418188176	0.9827628735817069	0.2500000000000031	 0 0 0
O     0.9827627815620112	0.017237189438064772	0.7500000000001552	 0 0 0
O     0.9827628735818295	0.48276282758180117	0.2500000000001193	 0 0 0
O     0.017237189438251026	0.517237172438248	0.7499999999999812	 0 0 0
O     0.5172371264180798	0.017237155418118197	0.24999999999990996	 0 0 0
O     0.4827628735620244	0.9827627815619746	0.7499999999998063	 0 0 0

K_POINTS automatic
6 6 6 0 0 0
