
&CONTROL
    calculation   = 'vc-relax'
    restart_mode  = 'from_scratch'
    prefix        = 'Landau_21'
    pseudo_dir    = '/cluster/scratch/mnoe/QE/pps'
    outdir        = './'
    forc_conv_thr = 1.0d-7
    etot_conv_thr = 1.0d-7

/
&SYSTEM
    ibrav       = 0
    nat         = 32
    ntyp        = 2
    ecutwfc     = 120
    occupations = 'smearing'
    degauss     = 7.35d-4
    tot_charge  = -0.0
/
&ELECTRONS
    conv_thr    = 1.0d-8
    diagonalization = 'david'
/


&IONS
ion_dynamics = 'bfgs'
/

&CELL
cell_dynamics = 'bfgs'
cell_dofree = 'all'
/
CELL_PARAMETERS angstrom
        7.3236460686         0.0000000000         0.0000000000
        0.0000000000         7.7495899200         0.0000000000
        0.0000000000         0.0000000000         7.3236460686

ATOMIC_SPECIES
W 183.84 W_ONCV_LDA-4.0.upf
O 15.9994 O_ONCV_LDA-3.0.upf

ATOMIC_POSITIONS crystal
W 0.259110009	0.27021718723226223	-0.990419958	 0 0 0
W 0.7404198960043807	0.7297828127677378	-0.99089004	 0 0 0
W 0.240889991	0.2297828316424638	-0.490419991	 0 0 0
W 0.7595799470043807	0.7702173073487747	-0.49088999099999997	 0 0 0
W 0.7408899780043807	0.27021718723226223	-0.509580009	 0 0 0
W 0.259580009	0.7297828127677378	-0.509110009	 0 0 0
W 0.7591099300043807	0.2297828316424638	-1.009580009	 0 0 0
W 0.240419991	0.7702173073487747	-1.009109992	 0 0 0
O 0.269400008	0.00515268438625837	-0.980690001	 0 0 0
O 0.7306899390043807	0.9948472472444913	-0.980600008	 0 0 0
O 0.230599992	0.4948473673610037	-0.48069000100000003	 0 0 0
O 0.7693099050043807	0.5051527527555087	-0.48059999200000003	 0 0 0
O 0.7305999460043807	0.00515268438625837	-0.5193099990000001	 0 0 0
O 0.269309999	0.9948472472444913	-0.5194000080000001	 0 0 0
O 0.7693999620043807	0.4948473673610037	-1.0193099669999999	 0 0 0
O 0.230690001	0.5051527527555087	-1.0194000239999998	 0 0 0
O 0.495959992	0.273180007	-0.5220720453544057	 0 0 0
O 0.502650014	0.7336000761208932	-0.4779278107796295	 0 0 0
O 0.004040003	0.226820008	-1.0220720453544057	 0 0 0
O 0.997349986	0.7664000401208932	-0.977928031137928	 0 0 0
O 0.504040008	0.273180007	-0.977928031137928	 0 0 0
O 0.497350019	0.7336000761208932	-1.0220720453544057	 0 0 0
O 0.995959992	0.226820008	-0.4779278107796295	 0 0 0
O 0.002649993	0.7664000401208932	-0.5220720453544057	 0 0 0
O 0.7279278567752488	0.233599987	-0.2526500549956193	 0 0 0
O 0.27207198335878624	0.7268200511208932	-0.754040008	 0 0 0
O 0.7720722352159898	0.266400013	-0.752650014	 0 0 0
O 0.2279279386455942	0.7731800651208932	-0.2540400649956193	 0 0 0
O 0.27207198335878624	0.233599987	-1.2473500479956194	 0 0 0
O 0.7279278567752488	0.7268200511208932	-0.745959992	 0 0 0
O 0.2279279386455942	0.266400013	-0.747350019	 0 0 0
O 0.7720722352159898	0.7731800651208932	-1.2459600539956193	 0 0 0

K_POINTS automatic
6 6 6 0 0 0
