
&CONTROL
    calculation   = 'vc-relax'
    restart_mode  = 'from_scratch'
    prefix        = 'Landau_0'
    pseudo_dir    = '/cluster/scratch/mnoe/QE/pps'
    outdir        = './'
    forc_conv_thr = 1.0d-7
    etot_conv_thr = 1.0d-7

/
&SYSTEM
    ibrav       = 0
    nat         = 32
    ntyp        = 2
    ecutwfc     = 120
    occupations = 'smearing'
    degauss     = 7.35d-4
    tot_charge  = -0.0
/
&ELECTRONS
    conv_thr    = 1.0d-8
    diagonalization = 'david'
/


&IONS
ion_dynamics = 'bfgs'
/

&CELL
cell_dynamics = 'bfgs'
cell_dofree = 'all'
/
CELL_PARAMETERS angstrom
        7.3236460686         0.0000000000         0.0000000000
        0.0000000000         7.7495899200         0.0000000000
        0.0000000000         0.0000000000         7.3236460686

ATOMIC_SPECIES
W 183.84 W_ONCV_LDA-4.0.upf
O 15.9994 O_ONCV_LDA-3.0.upf

ATOMIC_POSITIONS crystal
        0.250000000         0.281860003         0.000000000 0 0 0
        0.750000000         0.718139997         0.000000000 0 0 0
        0.250000000         0.218140012         0.500000000 0 0 0
        0.750000000         0.781859972         0.500000000 0 0 0
        0.750000000         0.281860003         0.500000000 0 0 0
        0.250000000         0.718139997         0.500000000 0 0 0
        0.750000000         0.218140012         0.000000000 0 0 0
        0.250000000         0.781859972         0.000000000 0 0 0
        0.250000000         0.008320000         0.000000000 0 0 0
        0.750000000         0.991680023         0.000000000 0 0 0
        0.250000000         0.491679992         0.500000000 0 0 0
        0.750000000         0.508319977         0.500000000 0 0 0
        0.750000000         0.008320000         0.500000000 0 0 0
        0.250000000         0.991680023         0.500000000 0 0 0
        0.750000000         0.491679992         0.000000000 0 0 0
        0.250000000         0.508319977         0.000000000 0 0 0
        0.500000000         0.250000000         0.449540004 0 0 0
        0.500000000         0.749999985         0.550459963 0 0 0
       -0.000000000         0.250000000         0.949540037 0 0 0
       -0.000000000         0.749999985         0.050460012 0 0 0
        0.500000000         0.250000000         0.050460012 0 0 0
        0.500000000         0.749999985         0.949540037 0 0 0
       -0.000000000         0.250000000         0.550459963 0 0 0
       -0.000000000         0.749999985         0.449540004 0 0 0
        0.699540037         0.250000000         0.750000000 0 0 0
        0.300459996         0.749999985         0.250000000 0 0 0
        0.800459963         0.250000000         0.250000000 0 0 0
        0.199540020         0.749999985         0.750000000 0 0 0
        0.300459996         0.250000000         0.750000000 0 0 0
        0.699540037         0.749999985         0.250000000 0 0 0
        0.199540020         0.250000000         0.250000000 0 0 0
        0.800459963         0.749999985         0.750000000 0 0 0

K_POINTS automatic
6 6 6 0 0 0
