
&CONTROL
    calculation   = 'vc-relax'
    restart_mode  = 'from_scratch'
    prefix        = 'Landau_35'
    pseudo_dir    = '/cluster/scratch/mnoe/QE/pps'
    outdir        = './'
    forc_conv_thr = 1.0d-7
    etot_conv_thr = 1.0d-7

/
&SYSTEM
    ibrav       = 0
    nat         = 32
    ntyp        = 2
    ecutwfc     = 120
    occupations = 'smearing'
    degauss     = 7.35d-4
    tot_charge  = -0.0
/
&ELECTRONS
    conv_thr    = 1.0d-8
    diagonalization = 'david'
/


&IONS
ion_dynamics = 'bfgs'
/

&CELL
cell_dynamics = 'bfgs'
cell_dofree = 'all'
/
CELL_PARAMETERS angstrom
        7.3236460686         0.0000000000         0.0000000000
        0.0000000000         7.3236460686         0.0000000000
        0.0000000000         0.0000000000         7.7495899200

ATOMIC_SPECIES
W 183.84 W_ONCV_LDA-4.0.upf
O 15.9994 O_ONCV_LDA-3.0.upf

ATOMIC_POSITIONS crystal
W 0.234820000         0.234029997         0.218119991 0 0 0
W 0.765179967         0.765969970         0.218119991 0 0 0
W 0.234029997         0.765179967         0.781880024 0 0 0
W 0.765969970         0.234820000         0.781880024 0 0 0
W 0.265180000         0.734029997         0.281880024 0 0 0
W 0.734820000         0.265969986         0.281880024 0 0 0
W 0.265969986         0.265180000         0.718119976 0 0 0
W 0.734029997         0.734820000         0.718119976 0 0 0
O 0.217659995         0.217820005         0.491670026 0 0 0
O 0.782340005         0.782180011         0.491670026 0 0 0
O 0.217820005         0.782340005         0.508329974 0 0 0
O 0.782180011         0.217659995         0.508329974 0 0 0
O 0.282340005         0.717820021         0.008329987 0 0 0
O 0.717660028         0.282180011         0.008329987 0 0 0
O 0.282180011         0.282340005         0.991670026 0 0 0
O 0.717820021         0.717660028         0.991670026 0 0 0
O 0.199410008         0.495580000         0.277340010 0 0 0
O 0.800589976         0.504420032         0.277340010 0 0 0
O 0.495580000         0.800589976         0.722659990 0 0 0
O 0.504420032         0.199410008         0.722659990 0 0 0
O 0.300589976         0.995579968         0.222660005 0 0 0
O 0.699409992         0.004420012         0.222660005 0 0 0
O 0.004420012         0.300589976         0.777340010 0 0 0
O 0.995579968         0.699409992         0.777340010 0 0 0
O 0.993260033         0.199410008         0.211370008 0 0 0
O 0.006739974         0.800589976         0.211370008 0 0 0
O 0.199410008         0.006739974         0.788630023 0 0 0
O 0.800589976         0.993260033         0.788630023 0 0 0
O 0.506739967         0.699409992         0.288630023 0 0 0
O 0.493260033         0.300589976         0.288630023 0 0 0
O 0.300589976         0.506739967         0.711369977 0 0 0
O 0.699409992         0.493260033         0.711369977 0 0 0

K_POINTS automatic
6 6 6 0 0 0
