
&CONTROL
    calculation   = 'vc-relax'
    restart_mode  = 'from_scratch'
    prefix        = 'Landau_6'
    pseudo_dir    = '/cluster/scratch/mnoe/QE/pps'
    outdir        = './'
    forc_conv_thr = 1.0d-7
    etot_conv_thr = 1.0d-7

/
&SYSTEM
    ibrav       = 0
    nat         = 32
    ntyp        = 2
    ecutwfc     = 120
    occupations = 'smearing'
    degauss     = 7.35d-4
    tot_charge  = -0.0
/
&ELECTRONS
    conv_thr    = 1.0d-8
    diagonalization = 'david'
/


&IONS
ion_dynamics = 'bfgs'
/

&CELL
cell_dynamics = 'bfgs'
cell_dofree = 'all'
/
CELL_PARAMETERS angstrom
        7.3236460686         0.0000000000         0.0000000000
        0.0000000000         7.7495899200         0.0000000000
        0.0000000000         0.0000000000         7.3236460686

ATOMIC_SPECIES
W 183.84 W_ONCV_LDA-4.0.upf
O 15.9994 O_ONCV_LDA-3.0.upf

ATOMIC_POSITIONS crystal
W 0.247229993	0.2829209976783583	0.00262	 0 0 0
W 0.75276999	0.7170790023216417	0.997380027	 0 0 0
W 0.252770007	0.2170790159157285	0.502619973	 0 0 0
W 0.74723001	0.7829209666783583	0.497379995	 0 0 0
W 0.75276999	0.2829209976783583	0.497379995	 0 0 0
W 0.247229993	0.7170790023216417	0.502619973	 0 0 0
W 0.74723001	0.2170790159157285	0.997380027	 0 0 0
W 0.252770007	0.7829209666783583	0.00262	 0 0 0
O 0.244880007	0.010327644095685408	0.00082	 0 0 0
O 0.755120009	0.9896723814349583	0.999180046	 0 0 0
O 0.255119976	0.4896723475294044	0.500819987	 0 0 0
O 0.744879991	0.5103276243761494	0.499179981	 0 0 0
O 0.755120009	0.010327644095685408	0.499179981	 0 0 0
O 0.244880007	0.9896723814349583	0.500819987	 0 0 0
O 0.744879991	0.4896723475294044	0.999180046	 0 0 0
O 0.255119976	0.5103276243761494	0.00082	 0 0 0
O 0.500760019	0.244749996	0.45502400637443113	 0 0 0
O 0.499239981	0.755249989	0.5449759667178593	 0 0 0
O 0.999239949	0.255250004	0.955024034875509	 0 0 0
O 0.000760078	0.744750042	0.04497601374958083	 0 0 0
O 0.499239981	0.244749996	0.04497601374958083	 0 0 0
O 0.500760019	0.755249989	0.955024034875509	 0 0 0
O 0.000760078	0.255250004	0.5449759667178593	 0 0 0
O 0.999239949	0.744750042	0.45502400637443113	 0 0 0
O 0.7050240424674401	0.248850006	0.748849994	 0 0 0
O 0.294975998124491	0.751150025	0.251150006	 0 0 0
O 0.7949759636248502	0.251150009	0.248849994	 0 0 0
O 0.20502402246815868	0.748850006	0.751150006	 0 0 0
O 0.294975998124491	0.248850006	0.751150006	 0 0 0
O 0.7050240424674401	0.751150025	0.248849994	 0 0 0
O 0.20502402246815868	0.251150009	0.251150006	 0 0 0
O 0.7949759636248502	0.748850006	0.748849994	 0 0 0

K_POINTS automatic
6 6 6 0 0 0
