
&CONTROL
    calculation   = 'vc-relax'
    restart_mode  = 'from_scratch'
    prefix        = 'Landau_6'
    pseudo_dir    = '/cluster/scratch/mnoe/QE/pps'
    outdir        = './'
    forc_conv_thr = 1.0d-7
    etot_conv_thr = 1.0d-7

/
&SYSTEM
    ibrav       = 0
    nat         = 32
    ntyp        = 2
    ecutwfc     = 120
    occupations = 'smearing'
    degauss     = 7.35d-4
    tot_charge  = -0.0
/
&ELECTRONS
    conv_thr    = 1.0d-8
    diagonalization = 'david'
/


&IONS
ion_dynamics = 'bfgs'
/

&CELL
cell_dynamics = 'bfgs'
cell_dofree = 'all'
/
CELL_PARAMETERS angstrom
        7.3236460686         0.0000000000         0.0000000000
        0.0000000000         7.7495899200         0.0000000000
        0.0000000000         0.0000000000         7.3236460686

ATOMIC_SPECIES
W 183.84 W_ONCV_LDA-4.0.upf
O 15.9994 O_ONCV_LDA-3.0.upf

ATOMIC_POSITIONS crystal
W       0.247229993	0.28389760084000004	0.00262	 0 0 0
W       0.75276999	0.71610239916	0.997380027	 0 0 0
W       0.252770007	0.21610241146	0.502619973	 0 0 0
W       0.74723001	0.78389756984	0.497379995	 0 0 0
W      0.75276999	0.28389760084000004	0.497379995	 0 0 0
W      0.247229993	0.71610239916	0.502619973	 0 0 0
W      0.74723001	0.21610241146	0.997380027	 0 0 0
W      0.252770007	0.78389756984	0.00262	 0 0 0
O       0.244880007	0.01217560018	0.00082	 0 0 0
O       0.755120009	0.98782442768	0.999180046	 0 0 0
O       0.255119976	0.48782439110000003	0.500819987	 0 0 0
O       0.744879991	0.51217558348	0.499179981	 0 0 0
O       0.755120009	0.01217560018	0.499179981	 0 0 0
O       0.244880007	0.98782442768	0.500819987	 0 0 0
O       0.744879991	0.48782439110000003	0.999180046	 0 0 0
O       0.255119976	0.51217558348	0.00082	 0 0 0
O    0.500760019	0.244749996	0.4600718112	 0 0 0
O    0.499239981	0.755249989	0.5399281675	 0 0 0
O    0.999239949	0.255250004	0.96007183556	 0 0 0
O    0.000760078	0.744750042	0.039928212719999995	 0 0 0
O   0.499239981	0.244749996	0.039928212719999995	 0 0 0
O   0.500760019	0.755249989	0.96007183556	 0 0 0
O   0.000760078	0.255250004	0.5399281675	 0 0 0
O   0.999239949	0.744750042	0.4600718112	 0 0 0
O   0.71007185014	0.248850006	0.748849994	 0 0 0
O   0.28992819744000004	0.751150025	0.251150006	 0 0 0
O   0.78992816156	0.251150009	0.248849994	 0 0 0
O   0.21007182738000002	0.748850006	0.751150006	 0 0 0
O   0.28992819744000004	0.248850006	0.751150006	 0 0 0
O   0.71007185014	0.751150025	0.248849994	 0 0 0
O   0.21007182738000002	0.251150009	0.251150006	 0 0 0
O   0.78992816156	0.748850006	0.748849994	 0 0 0

K_POINTS automatic
6 6 6 0 0 0
