
&CONTROL
    calculation   = 'vc-relax'
    restart_mode  = 'from_scratch'
    prefix        = 'Landau_18'
    pseudo_dir    = '/cluster/scratch/mnoe/QE/pps'
    outdir        = './'
    forc_conv_thr = 1.0d-7
    etot_conv_thr = 1.0d-7

/
&SYSTEM
    ibrav       = 0
    nat         = 32
    ntyp        = 2
    ecutwfc     = 120
    occupations = 'smearing'
    degauss     = 7.35d-4
    tot_charge  = -0.0
/
&ELECTRONS
    conv_thr    = 1.0d-8
    diagonalization = 'david'
/


&IONS
ion_dynamics = 'bfgs'
/

&CELL
cell_dynamics = 'bfgs'
cell_dofree = 'all'
/
CELL_PARAMETERS angstrom
        7.3236460686         0.0000000000         0.0000000000
        0.0000000000         7.7495899200         0.0000000000
        0.0000000000         0.0000000000         7.3236460686

ATOMIC_SPECIES
W 183.84 W_ONCV_LDA-4.0.upf
O 15.9994 O_ONCV_LDA-3.0.upf

ATOMIC_POSITIONS crystal
W 0.257799979	0.2718833067705105	-0.991790027	 0 0 0
W 0.7417899738608977	0.7281166932294896	-0.992200005	 0 0 0
W 0.242200005	0.22811671155068325	-0.491789994	 0 0 0
W 0.7582099528608978	0.7718834097275212	-0.492200005	 0 0 0
W 0.7421999518608978	0.2718833067705105	-0.508210006	 0 0 0
W 0.258210006	0.7281166932294896	-0.5077999790000001	 0 0 0
W 0.7577999088608978	0.22811671155068325	-1.008210006	 0 0 0
W 0.241789994	0.7718834097275212	-1.007799962	 0 0 0
O 0.266629999	0.005606584759650032	-0.983449997	 0 0 0
O 0.7334499438608978	0.9943933584952782	-0.983370033	 0 0 0
O 0.233370001	0.4943934614522889	-0.483449997	 0 0 0
O 0.7665499818608977	0.5056066415047218	-0.483370001	 0 0 0
O 0.7333699798608978	0.005606584759650032	-0.516550003	 0 0 0
O 0.266550003	0.9943933584952782	-0.5166299990000001	 0 0 0
O 0.7666299458608977	0.4943934614522889	-1.0165500349999999	 0 0 0
O 0.233449997	0.5056066415047218	-1.016629999	 0 0 0
O 0.496530062	0.269869984	-0.5261460354466334	 0 0 0
O 0.502269989	0.7359400038179085	-0.47385383895396815	 0 0 0
O 0.003470003	0.230130001	-1.0261460354466334	 0 0 0
O 0.997730011	0.7640600958179085	-0.9738540255467955	 0 0 0
O 0.503470003	0.269869984	-0.9738540255467955	 0 0 0
O 0.497729978	0.7359400038179085	-1.0261460354466334	 0 0 0
O 0.996529964	0.230130001	-0.47385383895396815	 0 0 0
O 0.002270013	0.7640600958179085	-0.5261460354466334	 0 0 0
O 0.7238538760930704	0.235940016	-0.25227006613910224	 0 0 0
O 0.27614598230753107	0.7301300658179085	-0.753470003	 0 0 0
O 0.7761461981851341	0.264059984	-0.752269989	 0 0 0
O 0.22385394855336646	0.7698700338179084	-0.25347005613910223	 0 0 0
O 0.27614598230753107	0.235940016	-1.2477300641391023	 0 0 0
O 0.7238538760930704	0.7301300658179085	-0.7465300619999999	 0 0 0
O 0.22385394855336646	0.264059984	-0.747729978	 0 0 0
O 0.7761461981851341	0.7698700338179084	-1.2465300171391023	 0 0 0

K_POINTS automatic
6 6 6 0 0 0
