
&CONTROL
    calculation   = 'vc-relax'
    restart_mode  = 'from_scratch'
    prefix        = 'Landau_18'
    pseudo_dir    = '/cluster/scratch/mnoe/QE/pps'
    outdir        = './'
    forc_conv_thr = 1.0d-7
    etot_conv_thr = 1.0d-7

/
&SYSTEM
    ibrav       = 0
    nat         = 32
    ntyp        = 2
    ecutwfc     = 120
    occupations = 'smearing'
    degauss     = 7.35d-4
    tot_charge  = -0.0
/
&ELECTRONS
    conv_thr    = 1.0d-8
    diagonalization = 'david'
/


&IONS
ion_dynamics = 'bfgs'
/

&CELL
cell_dynamics = 'bfgs'
cell_dofree = 'all'
/
CELL_PARAMETERS angstrom
        7.3236460686         0.0000000000         0.0000000000
        0.0000000000         7.7495899200         0.0000000000
        0.0000000000         0.0000000000         7.3236460686

ATOMIC_SPECIES
W 183.84 W_ONCV_LDA-4.0.upf
O 15.9994 O_ONCV_LDA-3.0.upf

ATOMIC_POSITIONS crystal
W 0.266180013	0.28797279652	0.2504599980000001	 0 0 0
W -0.25046001500000015	0.7120272034799999	-0.7338200190000002	 0 0 0
W 0.233819987	0.21202721038	0.750459983	 0 0 0
W 0.7504599980000001	0.7879727655200001	0.766180013	 0 0 0
W 0.733820002	0.28797279652	0.749540017	 0 0 0
W 0.250459983	0.7120272034799999	0.733819987	 0 0 0
W -0.23382001900000005	0.21202721038	-0.7504600150000003	 0 0 0
W 0.249540017	0.7879727655200001	0.23382000199999997	 0 0 0
O 0.26780999299999997	0.01988680054	0.26291002700000005	 0 0 0
O -0.262910062	0.98011323704	-0.732190008	 0 0 0
O 0.23219000699999998	0.4801131893	0.762909997	 0 0 0
O 0.762910027	0.51988679644	0.767809993	 0 0 0
O 0.732189973	0.01988680054	0.737090003	 0 0 0
O 0.26290999699999995	0.98011323704	0.732190007	 0 0 0
O -0.2321900079999999	0.4801131893	-0.7629100620000001	 0 0 0
O 0.237090003	0.51988679644	0.23218997299999994	 0 0 0
O 0.4942700549999999	0.26919001000000004	0.7311354256	 0 0 0
O 0.49883003699999984	0.7376900029999999	0.7688645765	 0 0 0
O -0.9942700560000001	0.230810006	1.23113543268	 0 0 0
O 0.0011699239999999667	0.7623099069999999	0.26886461416	 0 0 0
O 0.505729945	0.26919001000000004	0.26886461416	 0 0 0
O 0.501169963	0.7376900029999999	1.23113543268	 0 0 0
O -0.005729967000000025	0.230810006	0.7688645765	 0 0 0
O -1.0011699470000002	0.7623099069999999	0.7311354256	 0 0 0
O 0.7311354764199999	0.237690002	2.001169931	 0 0 0
O 0.26886460032000004	0.7308099449999998	0.494270039	 0 0 0
O 0.7688645586799999	0.262310014	0.50116993	 0 0 0
O 0.23113544213999995	0.7691899649999999	1.994270023	 0 0 0
O 0.26886460032000004	0.237690002	0.9988300429999999	 0 0 0
O 0.73113547642	0.7308099449999998	0.505729912	 0 0 0
O 0.23113544214	0.262310014	0.49883002099999996	 0 0 0
O 0.7688645586799999	0.7691899649999999	1.0057299510000002	 0 0 0

K_POINTS automatic
6 6 6 0 0 0
