
&CONTROL
    calculation   = 'vc-relax'
    restart_mode  = 'from_scratch'
    prefix        = 'Landau_29'
    pseudo_dir    = '/cluster/scratch/mnoe/QE/pps'
    outdir        = './'
    forc_conv_thr = 1.0d-7
    etot_conv_thr = 1.0d-7

/
&SYSTEM
    ibrav       = 0
    nat         = 32
    ntyp        = 2
    ecutwfc     = 120
    occupations = 'smearing'
    degauss     = 7.35d-4
    tot_charge  = -0.0
/
&ELECTRONS
    conv_thr    = 1.0d-8
    diagonalization = 'david'
/


&IONS
ion_dynamics = 'bfgs'
/

&CELL
cell_dynamics = 'bfgs'
cell_dofree = 'all'
/
CELL_PARAMETERS angstrom
        7.3236460686         0.0000000000         0.0000000000
        0.0000000000         7.7495899200         0.0000000000
        0.0000000000         0.0000000000         7.3236460686

ATOMIC_SPECIES
W 183.84 W_ONCV_LDA-4.0.upf
O 15.9994 O_ONCV_LDA-3.0.upf

ATOMIC_POSITIONS crystal
W 0.236589993	0.2869881439453985	0.01267	 0 0 0
W 0.763409991	0.7130118560546015	0.987330006	 0 0 0
W 0.263410007	0.21301186425935453	0.512669994	 0 0 0
W 0.736590009	0.7869881129453985	0.487330006	 0 0 0
W 0.763409991	0.2869881439453985	0.487330006	 0 0 0
W 0.236589993	0.7130118560546015	0.512669994	 0 0 0
W 0.736590009	0.21301186425935453	0.987330006	 0 0 0
W 0.263410007	0.7869881129453985	0.01267	 0 0 0
O 0.225260002	0.01802361312914614	0.00394	 0 0 0
O 0.774739982	0.9819764221022984	0.996060014	 0 0 0
O 0.274739982	0.48197637705878804	0.503939986	 0 0 0
O 0.725260018	0.5180236059847224	0.496060014	 0 0 0
O 0.774739982	0.01802361312914614	0.496060014	 0 0 0
O 0.225260002	0.9819764221022984	0.503939986	 0 0 0
O 0.725260018	0.48197637705878804	0.996060014	 0 0 0
O 0.274739982	0.5180236059847224	0.00394	 0 0 0
O 0.503669967	0.224620002	0.4760460154764171	 0 0 0
O 0.496330033	0.775379998	0.5239539809696531	 0 0 0
O 0.996330033	0.275380029	0.9760460267316268	 0 0 0
O 0.003669977	0.724619971	0.023954020456307346	 0 0 0
O 0.496330033	0.224620002	0.023954020456307346	 0 0 0
O 0.503669967	0.775379998	0.9760460267316268	 0 0 0
O 0.003669977	0.275380029	0.5239539809696531	 0 0 0
O 0.996330033	0.724619971	0.4760460154764171	 0 0 0
O 0.7260460634259605	0.244459994	0.74444003	 0 0 0
O 0.27395400626837324	0.755539991	0.255559986	 0 0 0
O 0.7739539660201098	0.255540006	0.244440079	 0 0 0
O 0.22604603192943357	0.744459979	0.75555997	 0 0 0
O 0.27395400626837324	0.244459994	0.75555997	 0 0 0
O 0.7260460634259605	0.755539991	0.244440079	 0 0 0
O 0.22604603192943357	0.255540006	0.255559986	 0 0 0
O 0.7739539660201098	0.744459979	0.74444003	 0 0 0

K_POINTS automatic
6 6 6 0 0 0
