&CONTROL
    calculation   = 'scf'
    restart_mode  = 'from_scratch'
    prefix        = 'Landau_6'
    pseudo_dir    = '/cluster/scratch/mnoe/QE/pps'
    outdir        = './'
/
&SYSTEM
    ibrav       = 0
    nat         = 32
    ntyp        = 2
    ecutwfc     = 120
    occupations = 'smearing'
    degauss     = 7.35d-4
    tot_charge  = -0.6
/
&ELECTRONS
    conv_thr    = 1.0d-8
    diagonalization = 'david'
/

CELL_PARAMETERS angstrom
   7.362310077   0.000000000   0.000000000
   0.000000000   7.707009569   0.000000000
   0.000000000   0.000000000   7.367230018

ATOMIC_SPECIES
W 183.84 W_ONCV_LDA-4.0.upf
O 15.9994 O_ONCV_LDA-3.0.upf

ATOMIC_POSITIONS crystal
W 0.244450008	0.2794828628555598	0.00524	
W 0.7555499953639426	0.7205171371444402	0.99475999	
W 0.255549992	0.22051715293419377	0.50524001	
W 0.7444499793639425	0.7794828563379211	0.494760022	
W 0.7555499953639426	0.2794828628555598	0.494760022	
W 0.244450008	0.7205171371444402	0.50524001	
W 0.7444499793639425	0.22051715293419377	0.99475999	
W 0.255549992	0.7794828563379211	0.00524	
O 0.239759998	0.007672396527142246	0.00163	
O 0.7602400053639425	0.9923276098880324	0.998369989	
O 0.260240018	0.49232760337039366	0.501630011	
O 0.7397599693639426	0.5076723901119676	0.498369989	
O 0.7602400053639425	0.007672396527142246	0.498369989	
O 0.239759998	0.9923276098880324	0.501630011	
O 0.7397599693639426	0.49232760337039366	0.998369989	
O 0.260240018	0.5076723901119676	0.00163	
O 0.501519972	0.239500008	0.45535257937287416	
O 0.498480028	0.7605000038463038	0.5446474136889943	
O 0.998480028	0.260500023	0.9553526123728742	
O 0.001519918	0.7394999888463039	0.04464741451402526	
O 0.498480028	0.239500008	0.04464741451402526	
O 0.501519972	0.7605000038463038	0.9553526123728742	
O 0.001519918	0.260500023	0.5446474136889943	
O 0.998480028	0.7394999888463039	0.45535257937287416	
O 0.7053525989470631	0.247710011	0.7476999743639425	
O 0.2946474079910683	0.7522900468463039	0.252300029	
O 0.7946474263250517	0.252290004	0.247699971	
O 0.2053525953728742	0.7477100078463038	0.7523000003639426	
O 0.2946474079910683	0.247710011	0.7523000003639426	
O 0.7053525989470631	0.7522900468463039	0.247699971	
O 0.2053525953728742	0.252290004	0.252300029	
O 0.7946474263250517	0.7477100078463038	0.7476999743639425	

K_POINTS automatic
6 6 6 0 0 0
