&CONTROL
    calculation   = 'scf'
    restart_mode  = 'from_scratch'
    prefix        = 'Landau_18'
    pseudo_dir    = '/cluster/scratch/mnoe/QE/pps'
    outdir        = './'
/
&SYSTEM
    ibrav       = 0
    nat         = 32
    ntyp        = 2
    ecutwfc     = 120
    occupations = 'smearing'
    degauss     = 7.35d-4
    tot_charge  = -1.0
/
&ELECTRONS
    conv_thr    = 1.0d-8
    diagonalization = 'david'
/

CELL_PARAMETERS angstrom
   7.343054096   0.000000000   0.000000000
   0.000000000   7.609021408   0.000000000
   0.000000000   0.000000000   7.390477272

ATOMIC_SPECIES
W 183.84 W_ONCV_LDA-4.0.upf
O 15.9994 O_ONCV_LDA-3.0.upf

ATOMIC_POSITIONS crystal
W 0.233349992	0.2800771478916699	0.01572	
W 0.766650014522957	0.7199228521083302	0.984279969	
W 0.266650024	0.2199228677006453	0.515719998	
W 0.7333499665229569	0.7800771352534408	0.484280002	
W 0.766650014522957	0.2800771478916699	0.484280002	
W 0.233349992	0.7199228521083302	0.515719998	
W 0.7333499665229569	0.2199228677006453	0.984279969	
W 0.266650024	0.7800771352534408	0.01572	
O 0.219290006	0.007834297395356685	0.00489	
O 0.7807099525229569	0.9921657131660243	0.995109966	
O 0.280709994	0.49216570052779524	0.504890034	
O 0.719290028522957	0.5078342868339757	0.495109999	
O 0.7807099525229569	0.007834297395356685	0.495109999	
O 0.219290006	0.9921657131660243	0.504890034	
O 0.719290028522957	0.49216570052779524	0.995109966	
O 0.280709994	0.5078342868339757	0.00489	
O 0.504549987	0.218490008	0.4538994355296556	
O 0.495450013	0.781509984884728	0.5461005510167457	
O 0.995450046	0.281510007	0.9538994685296557	
O 0.00454998	0.718490001884728	0.04610056388551895	
O 0.495450013	0.218490008	0.04610056388551895	
O 0.504549987	0.781509984884728	0.9538994685296557	
O 0.00454998	0.281510007	0.5461005510167457	
O 0.995450046	0.718490001884728	0.4538994355296556	
O 0.7038994584602973	0.243120003	0.7430999525229569	
O 0.29610055499330123	0.7568799898847279	0.256900006	
O 0.7961005604937887	0.256879981	0.243099929	
O 0.20389945152965563	0.743119996884728	0.756900028522957	
O 0.29610055499330123	0.243120003	0.756900028522957	
O 0.7038994584602973	0.7568799898847279	0.243099929	
O 0.20389945152965563	0.256879981	0.256900006	
O 0.7961005604937887	0.743119996884728	0.7430999525229569	

K_POINTS automatic
6 6 6 0 0 0
