&CONTROL
    calculation   = 'scf'
    restart_mode  = 'from_scratch'
    prefix        = 'Landau_14'
    pseudo_dir    = '/cluster/scratch/mnoe/QE/pps'
    outdir        = './'
/
&SYSTEM
    ibrav       = 0
    nat         = 32
    ntyp        = 2
    ecutwfc     = 120
    occupations = 'smearing'
    degauss     = 7.35d-4
    tot_charge  = -0.2
/
&ELECTRONS
    conv_thr    = 1.0d-8
    diagonalization = 'david'
/

CELL_PARAMETERS angstrom
   7.317466119   0.000000000   0.000000000
   0.000000000   7.676485765   0.000000000
   0.000000000   0.000000000   7.347218974

ATOMIC_SPECIES
W 183.84 W_ONCV_LDA-4.0.upf
O 15.9994 O_ONCV_LDA-3.0.upf

ATOMIC_POSITIONS crystal
W 0.237049992         0.281860003         0.012230000
W 0.762949975         0.718139997         0.987770032
W 0.262950008         0.218140012         0.512229968
W 0.737050025         0.781859972         0.487770000
W 0.762949975         0.281860003         0.487770000
W 0.237049992         0.718139997         0.512229968
W 0.737050025         0.218140012         0.987770032
W 0.262950008         0.781859972         0.012230000
O 0.226109989         0.008320000         0.003800000
O 0.773890011         0.991680023         0.996200004
O 0.273890011         0.491679992         0.503799963
O 0.726109989         0.508319977         0.496200004
O 0.773890011         0.008320000         0.496200004
O 0.226109989         0.991680023         0.503799963
O 0.726109989         0.491679992         0.996200004
O 0.273890011         0.508319977         0.003800000
O 0.503539971         0.225490008         0.449540004
O 0.496460029         0.774510053         0.550459963
O 0.996459996         0.274509992         0.949540037
O 0.003540039         0.725489978         0.050460012
O 0.496460029         0.225490008         0.050460012
O 0.503539971         0.774510053         0.949540037
O 0.003540039         0.274509992         0.550459963
O 0.996459996         0.725489978         0.449540004
O 0.699540037         0.244650006         0.744629961
O 0.300459996         0.755349979         0.255370022
O 0.800459963         0.255349994         0.244629978
O 0.199540020         0.744649991         0.755370039
O 0.300459996         0.244650006         0.755370039
O 0.699540037         0.755349979         0.244629978
O 0.199540020         0.255349994         0.255370022
O 0.800459963         0.744649991         0.744629961

K_POINTS automatic
6 6 6 0 0 0
