
&CONTROL
    calculation   = 'scf'
    restart_mode  = 'from_scratch'      
    prefix        = 'P4ncc_0'              
    pseudo_dir    = '/cluster/scratch/mnoe/QE/pps'         
    outdir        = './'
/
&SYSTEM   
    ibrav       = 0      
    nat         = 16       
    ntyp        = 2   
    ecutwfc     = 120               
    occupations = 'smearing'
    smearing    = 'gaussian'
    degauss     = 0.003674931
    tot_charge  = 0.0   
    noncolin    = .false.
    lspinorb    = .false.
/
&ELECTRONS
    conv_thr    = 1.0d-10              
    diagonalization = 'david'              
/

CELL_PARAMETERS angstrom
        5.1779599190         0.0000000000         0.0000000000
        0.0000000000         5.1779599190         0.0000000000
        0.0000000000         0.0000000000         7.7496299744

      
ATOMIC_SPECIES
W 183.84 W_ONCV_LDA-4.0.upf
O 15.9994 O_ONCV_LDA-3.0.upf


ATOMIC_POSITIONS crystal
O     0.250000000         0.250000000         0.491670026
O     0.750000023         0.750000023         0.508329974
O     0.750000023         0.750000023         0.008329987
O     0.250000000         0.250000000         0.991670026
O     0.449409976         0.550589978         0.250000000
O     0.550590024         0.449410022         0.750000000
O     0.050590007         0.949410022         0.250000000
O     0.949409930         0.050590041         0.750000000
O     0.949410022         0.449409976         0.250000000
O     0.050590041         0.550590024         0.750000000
O     0.550589978         0.050590007         0.250000000
O     0.449410022         0.949409930         0.750000000
W     0.250000000         0.250000000         0.218119991
W     0.750000023         0.750000023         0.781880024
W     0.750000023         0.750000023         0.281880024
W     0.250000000         0.250000000         0.718119976

K_POINTS automatic
9 9 6 0.5 0.5 0
