
&CONTROL
    calculation   = 'vc-relax'
    restart_mode  = 'from_scratch'
    prefix        = 'Landau_29'
    pseudo_dir    = '/cluster/scratch/mnoe/QE/pps'
    outdir        = './'
    forc_conv_thr = 1.0d-7
    etot_conv_thr = 1.0d-7

/
&SYSTEM
    ibrav       = 0
    nat         = 32
    ntyp        = 2
    ecutwfc     = 120
    occupations = 'smearing'
    degauss     = 7.35d-4
    tot_charge  = -0.0
/
&ELECTRONS
    conv_thr    = 1.0d-8
    diagonalization = 'david'
/


&IONS
ion_dynamics = 'bfgs'
/

&CELL
cell_dynamics = 'bfgs'
cell_dofree = 'all'
/
CELL_PARAMETERS angstrom
        7.3236460686         0.0000000000         0.0000000000
        0.0000000000         7.7495899200         0.0000000000
        0.0000000000         0.0000000000         7.3236460686

ATOMIC_SPECIES
W 183.84 W_ONCV_LDA-4.0.upf
O 15.9994 O_ONCV_LDA-3.0.upf

ATOMIC_POSITIONS crystal
W 0.26257	0.27876760382560795	-0.986770003	 0 0 0
W 0.7367699864554473	0.721232396174392	-0.987429967	 0 0 0
W 0.23743	0.22123241220842654	-0.486770003	 0 0 0
W 0.7632299474554474	0.7787676358806787	-0.48743000000000003	 0 0 0
W 0.7374299504554473	0.27876760382560795	-0.513229997	 0 0 0
W 0.263229997	0.721232396174392	-0.51257	 0 0 0
W 0.7625699834554474	0.22123241220842654	-1.013229964	 0 0 0
W 0.236770003	0.7787676358806787	-1.01257	 0 0 0
O 0.27680002	0.007482071441195849	-0.973340015	 0 0 0
O 0.7233399984554474	0.9925179198440789	-0.973199948	 0 0 0
O 0.223199997	0.4925179518991495	-0.473339999	 0 0 0
O 0.7766599354554474	0.5074820801559211	-0.47319999700000004	 0 0 0
O 0.7231999314554474	0.007482071441195849	-0.526659985	 0 0 0
O 0.276659985	0.9925179198440789	-0.52680002	 0 0 0
O 0.7768000034554474	0.4925179518991495	-1.0266599520000002	 0 0 0
O 0.223339999	0.5074820801559211	-1.02680002	 0 0 0
O 0.494420066	0.282010007	-0.5429794962821674	 0 0 0
O 0.503659951	0.727350030510518	-0.45702045359469284	 0 0 0
O 0.005580008	0.217989993	-1.0429794962821675	 0 0 0
O 0.996340017	0.7726500005105181	-0.9570205006707996	 0 0 0
O 0.50558	0.282010007	-0.9570205006707996	 0 0 0
O 0.496340017	0.727350030510518	-1.0429794962821675	 0 0 0
O 0.994419968	0.217989993	-0.45702045359469284	 0 0 0
O 0.003659993	0.7726500005105181	-0.5429794962821674	 0 0 0
O 0.7070204541392454	0.22735	-0.25366000954455253	 0 0 0
O 0.2929794797376148	0.7179899775105181	-0.75558	 0 0 0
O 0.7929795469498597	0.272650016	-0.753659951	 0 0 0
O 0.20702048771783257	0.7820100535105181	-0.2555800245445526	 0 0 0
O 0.2929794797376148	0.22735	-1.2463400335445527	 0 0 0
O 0.7070204541392454	0.7179899775105181	-0.744420066	 0 0 0
O 0.20702048771783257	0.272650016	-0.7463400170000001	 0 0 0
O 0.7929795469498597	0.7820100535105181	-1.2444199845445525	 0 0 0

K_POINTS automatic
6 6 6 0 0 0
