&CONTROL
    calculation   = 'scf'
    restart_mode  = 'from_scratch'
    prefix        = 'Landau_8'
    pseudo_dir    = '/cluster/scratch/mnoe/QE/pps'
    outdir        = './'
/
&SYSTEM
    ibrav       = 0
    nat         = 32
    ntyp        = 2
    ecutwfc     = 120
    occupations = 'smearing'
    degauss     = 7.35d-4
    tot_charge  = -0.6
/
&ELECTRONS
    conv_thr    = 1.0d-8
    diagonalization = 'david'
/

CELL_PARAMETERS angstrom
   7.421848783  -0.000000064  -0.000000044
  -0.000000070   7.676266394   0.000000194
  -0.000000044   0.000000183   7.421848766

ATOMIC_SPECIES
W 183.84 W_ONCV_LDA-4.0.upf
O 15.9994 O_ONCV_LDA-3.0.upf

ATOMIC_POSITIONS crystal
W 0.25	0.27549228761453937	0.0	
W 0.7499999661514204	0.7245077123854606	0.0	
W 0.25	0.22450772950099676	0.5	
W 0.7499999661514204	0.7754923221961624	0.5	
W 0.7499999661514204	0.27549228761453937	0.5	
W 0.25	0.7245077123854606	0.5	
W 0.7499999661514204	0.22450772950099676	0.0	
W 0.25	0.7754923221961624	0.0	
O 0.25	0.00658524548523615	0.0	
O 0.7499999661514204	0.9934147330885031	0.0	
O 0.25	0.49341476767012615	0.5	
O 0.7499999661514204	0.5065852669114969	0.5	
O 0.7499999661514204	0.00658524548523615	0.5	
O 0.25	0.9934147330885031	0.5	
O 0.7499999661514204	0.49341476767012615	0.0	
O 0.25	0.5065852669114969	0.0	
O 0.5	0.25	0.4651103210120483	
O 0.5	0.7500000167330434	0.534889715800647	
O 0.0	0.25	0.9651103540120484	
O 0.0	0.7500000167330434	0.03488963575293729	
O 0.5	0.25	0.03488963575293729	
O 0.5	0.7500000167330434	0.9651103540120484	
O 0.0	0.25	0.534889715800647	
O 0.0	0.7500000167330434	0.4651103210120483	
O 0.7151103180479326	0.25	0.7499999661514204	
O 0.2848896451393719	0.7500000167330434	0.25	
O 0.7848897496492266	0.25	0.25	
O 0.21511033701204835	0.7500000167330434	0.7499999661514204	
O 0.2848896451393719	0.25	0.7499999661514204	
O 0.7151103180479326	0.7500000167330434	0.25	
O 0.21511033701204835	0.25	0.25	
O 0.7848897496492266	0.7500000167330434	0.7499999661514204	

K_POINTS automatic
6 6 6 0 0 0
