
&CONTROL
    calculation   = 'vc-relax'
    restart_mode  = 'from_scratch'
    prefix        = 'Landau_20'
    pseudo_dir    = '/cluster/scratch/mnoe/QE/pps'
    outdir        = './'
    forc_conv_thr = 1.0d-7
    etot_conv_thr = 1.0d-7

/
&SYSTEM
    ibrav       = 0
    nat         = 32
    ntyp        = 2
    ecutwfc     = 120
    occupations = 'smearing'
    degauss     = 7.35d-4
    tot_charge  = -0.0
/
&ELECTRONS
    conv_thr    = 1.0d-8
    diagonalization = 'david'
/


&IONS
ion_dynamics = 'bfgs'
/

&CELL
cell_dynamics = 'bfgs'
cell_dofree = 'all'
/
CELL_PARAMETERS angstrom
        7.3236460686         0.0000000000         0.0000000000
        0.0000000000         7.7495899200         0.0000000000
        0.0000000000         0.0000000000         7.3236460686

ATOMIC_SPECIES
W 183.84 W_ONCV_LDA-4.0.upf
O 15.9994 O_ONCV_LDA-3.0.upf

ATOMIC_POSITIONS crystal
W 0.2349136162697676	0.26635994356740866	-0.0067232988970217095	 0 0 0
W 0.7441509220499043	0.7336400564325913	-0.015446369335083584	 0 0 0
W 0.2650863837302324	0.23364007658215186	0.4932766934134897	 0 0 0
W 0.7558489269453129	0.7663600722037921	0.48455361224010285	 0 0 0
W 0.7650862911012528	0.26635994356740866	0.5067233065865103	 0 0 0
W 0.25584901108589597	0.7336400564325913	0.5154463877598972	 0 0 0
W 0.7349135578939644	0.23364007658215186	0.006723304639172259	 0 0 0
W 0.24415098891410403	0.7663600722037921	0.015446375077234134	 0 0 0
O 0.23822558800200272	0.004097324133991479	-0.01909437666149032	 0 0 0
O 0.7552672041020803	-0.004097409274767335	-0.021805672109574147	 0 0 0
O 0.2617743882304871	0.4959027193616161	0.4809055970744123	 0 0 0
O 0.7447326269177091	0.5040974092747673	0.4781943081174552	 0 0 0
O 0.7617743131774815	0.004097324133991479	0.5190944042737448	 0 0 0
O 0.2447326814986998	-0.004097409274767335	0.5218056932307019	 0 0 0
O 0.738225517842308	0.4959027193616161	0.01909437491387929	 0 0 0
O 0.25526729473379	0.5040974092747673	0.021805670361963115	 0 0 0
O 0.5058589844524473	0.23668170736464839	0.4874406990627989	 0 0 0
O 0.5033324342103217	0.7541628854239435	0.5125594378727057	 0 0 0
O -0.005858953744424654	0.26331828514558997	0.9874407320627989	 0 0 0
O -0.0033324077464973014	0.7458372905924392	0.012559172749499872	 0 0 0
O 0.49414101554755274	0.23668170736464839	0.012559172749499872	 0 0 0
O 0.49666756578967836	0.7541628854239435	0.9874407320627989	 0 0 0
O 0.005858971969511231	0.26331828514558997	0.5125594378727057	 0 0 0
O 0.0033324259715838784	0.7458372905924392	0.4874406990627989	 0 0 0
O 0.7374406445202663	0.2690699136021409	0.7511169187824724	 0 0 0
O 0.26255921854422876	0.7728847985377512	0.25494673917862753	 0 0 0
O 0.7625595202656779	0.23093006842243124	0.25111699763029066	 0 0 0
O 0.23744071506279893	0.7271153771291093	0.7549466765586261	 0 0 0
O 0.26255921854422876	0.2690699136021409	0.7488829661636005	 0 0 0
O 0.7374406445202663	0.7728847985377512	0.24505327704918928	 0 0 0
O 0.23744071506279893	0.23093006842243124	0.24888301859752618	 0 0 0
O 0.7625595202656779	0.7271153771291093	0.7450532083874468	 0 0 0

K_POINTS automatic
6 6 6 0 0 0
