&CONTROL
    calculation   = 'scf'
    restart_mode  = 'from_scratch'
    prefix        = 'Landau_16'
    pseudo_dir    = '/cluster/scratch/mnoe/QE/pps'
    outdir        = './'
/
&SYSTEM
    ibrav       = 0
    nat         = 32
    ntyp        = 2
    ecutwfc     = 120
    occupations = 'smearing'
    degauss     = 7.35d-4
    tot_charge  = -0.84
/
&ELECTRONS
    conv_thr    = 1.0d-8
    diagonalization = 'david'
/

CELL_PARAMETERS angstrom
   7.417629248   0.000000000   0.000000000
   0.000000000   7.657986446   0.000000000
   0.000000000   0.000000000   7.419076634

ATOMIC_SPECIES
W 183.84 W_ONCV_LDA-4.0.upf
O 15.9994 O_ONCV_LDA-3.0.upf

ATOMIC_POSITIONS crystal
W        0.2426	0.28729359724000003	0.00699	
W        0.757400032	0.71270640276	0.993009977	
W        0.2574	0.21270641056	0.506990023	
W        0.742599968	0.78729356624	0.49301001	
W       0.757400032	0.28729359724000003	0.49301001	
W       0.2426	0.71270640276	0.506990023	
W       0.742599968	0.21270641056	0.993009977	
W       0.2574	0.78729356624	0.00699	
O        0.236350007	0.01860160048	0.00217	
O        0.763649993	0.9813984354799999	0.997829951	
O        0.263649993	0.48139838960000003	0.502170017	
O        0.736350007	0.51860159428	0.497830016	
O        0.763649993	0.01860160048	0.497830016	
O        0.236350007	0.9813984354799999	0.502170017	
O        0.736350007	0.48139838960000003	0.997829951	
O        0.263649993	0.51860159428	0.00217	
O    0.502019999	0.236	0.4776248232	
O    0.497980001	0.764000016	0.522375175	
O    0.997979968	0.263999985	0.97762483316	
O    0.002020001	0.736000015	0.022375213919999998	
O   0.497980001	0.236	0.022375213919999998	
O   0.502019999	0.764000016	0.97762483316	
O   0.002020001	0.263999985	0.522375175	
O   0.997979968	0.736000015	0.4776248232	
O   0.72762487204	0.246939995	0.746929974	
O   0.27237519984	0.75305999	0.253069993	
O   0.77237515916	0.25305999	0.246930007	
O   0.22762483968	0.746940041	0.753070026	
O   0.27237519984	0.246939995	0.753070026	
O   0.72762487204	0.75305999	0.246930007	
O   0.22762483968	0.25305999	0.253069993	
O   0.77237515916	0.746940041	0.746929974	

K_POINTS automatic
6 6 6 0 0 0
