
&CONTROL
    calculation   = 'vc-relax'
    restart_mode  = 'from_scratch'
    prefix        = 'Landau_1'
    pseudo_dir    = '/cluster/scratch/mnoe/QE/pps'
    outdir        = './'
    forc_conv_thr = 1.0d-7
    etot_conv_thr = 1.0d-7

/
&SYSTEM
    ibrav       = 0
    nat         = 32
    ntyp        = 2
    ecutwfc     = 120
    occupations = 'smearing'
    degauss     = 7.35d-4
    tot_charge  = -0.0
/
&ELECTRONS
    conv_thr    = 1.0d-8
    diagonalization = 'david'
/


&IONS
ion_dynamics = 'bfgs'
/

&CELL
cell_dynamics = 'bfgs'
cell_dofree = 'all'
/
CELL_PARAMETERS angstrom
        7.3236460686         0.0000000000         0.0000000000
        0.0000000000         7.7495899200         0.0000000000
        0.0000000000         0.0000000000         7.3236460686

ATOMIC_SPECIES
W 183.84 W_ONCV_LDA-4.0.upf
O 15.9994 O_ONCV_LDA-3.0.upf

ATOMIC_POSITIONS crystal
W 0.2484206162224479	0.2816620191905867	0.00018053604670373573	 0 0 0
W 0.7502706155561333	0.7183379808094134	-0.0015664629032962668	 0 0 0
W 0.2515793837775521	0.21833799587518918	0.5001805359099254	 0 0 0
W 0.7497293832005629	0.7816619902296382	0.4984335348099254	 0 0 0
W 0.7515793815005629	0.2816620191905867	0.4998194640900746	 0 0 0
W 0.2497293837775521	0.7183379808094134	0.5015664651900745	 0 0 0
W 0.7484206172561333	0.21833799587518918	-0.0001805348967037386	 0 0 0
W 0.2502706162224479	0.7816619902296382	0.001566464053296264	 0 0 0
O 0.24809010460154823	0.008266063338820996	-0.001006924768595592	 0 0 0
O 0.7515031023991345	-0.008266041720113922	-0.0015499251185955901	 0 0 0
O 0.25190989336235264	0.49173392931893756	0.4989930726953053	 0 0 0
O 0.7484968952338352	0.5082660417201139	0.4984500736453053	 0 0 0
O 0.7519098916338353	0.008266063338820996	0.5010069262540154	 0 0 0
O 0.24849689286235266	-0.008266041720113922	0.5015499253040154	 0 0 0
O 0.7480901059991346	0.49173392931893756	0.0010069244185955941	 0 0 0
O 0.2515031051015482	0.5082660417201139	0.0015499247685955922	 0 0 0
O 0.5005402992696144	0.24796332445733835	0.4500241133687788	 0 0 0
O 0.5000342984696144	0.7514643116558394	0.5499758558018244	 0 0 0
O -0.0005402984848738102	0.25203667404266167	0.9500241463687789	 0 0 0
O -3.4298534873809566e-05	0.7485356656023466	0.049975900789497256	 0 0 0
O 0.49945970073038554	0.24796332445733835	0.049975900789497256	 0 0 0
O 0.49996570153038555	0.7514643116558394	0.9500241463687789	 0 0 0
O 0.0005402967696144376	0.25203667404266167	0.5499758558018244	 0 0 0
O 3.429681961443693e-05	0.7485356656023466	0.4500241133687788	 0 0 0
O 0.7000241452505893	0.25092938769822204	0.7498060363767932	 0 0 0
O 0.2999758855788075	0.7516933774704495	0.25057303479310783	 0 0 0
O 0.7999758568542381	0.24907061117805154	0.2498060394431078	 0 0 0
O 0.20002412936877884	0.748306599800279	0.7505730349767932	 0 0 0
O 0.2999758855788075	0.25092938769822204	0.7501939646273559	 0 0 0
O 0.7000241452505893	0.7516933774704495	0.2494269684568922	 0 0 0
O 0.20002412936877884	0.24907061117805154	0.2501939638068922	 0 0 0
O 0.7999758568542381	0.748306599800279	0.7494269660273559	 0 0 0

K_POINTS automatic
6 6 6 0 0 0
