&CONTROL
    calculation   = 'scf'
    restart_mode  = 'from_scratch'
    prefix        = 'Landau_17'
    pseudo_dir    = '/cluster/scratch/mnoe/QE/pps'
    outdir        = './'
/
&SYSTEM
    ibrav       = 0
    nat         = 32
    ntyp        = 2
    ecutwfc     = 120
    occupations = 'smearing'
    degauss     = 7.35d-4
    tot_charge  = -1.0
/
&ELECTRONS
    conv_thr    = 1.0d-8
    diagonalization = 'david'
/

CELL_PARAMETERS angstrom
   7.489648223   0.000000000   0.000000000
   0.000000000   7.558736265   0.000000000
   0.000000000   0.000000000   7.502734023

ATOMIC_SPECIES
W 183.84 W_ONCV_LDA-4.0.upf
O 15.9994 O_ONCV_LDA-3.0.upf

ATOMIC_POSITIONS crystal
W 0.2354373375006962	0.26868495248229735	0.008180057013769707	
W 0.7589998921634548	0.7313150475177026	-0.014070694520949728	
W 0.2645626624993038	0.23131506689482906	0.5081800606755298	
W 0.7409999714302529	0.7686850571732233	0.48592928175721306	
W 0.7645625800471346	0.26868495248229735	0.49181993932447016	
W 0.24100003223027539	0.7313150475177026	0.5140707182427869	
W 0.735437283546573	0.23131506689482906	-0.008180042366729303	
W 0.2589999677697246	0.7686850571732233	0.014070709167990131	
O 0.22740056245348803	0.004730725513892756	-0.0019757526579996854	
O 0.7708703464795533	-0.004730794433552232	-0.008891707513676975	
O 0.27259942210343674	0.4952693102573737	0.4980242255306466	
O 0.7291295123379455	0.5047307944335522	0.4911082872324933	
O 0.7725993351934726	0.004730725513892756	0.5019757560013458	
O 0.22912954702802638	-0.004730794433552232	0.5088916942994992	
O 0.7274005236240262	0.4952693102573737	0.0019757482002047957	
O 0.2708704375288984	0.5047307944335522	0.008891703055882086	
O 0.5044434691549725	0.22648831691382204	0.4817555948033791	
O 0.4979987611732251	0.7710790639521117	0.5182445166417999	
O -0.004443479821838904	0.2735116639813426	0.9817556278033791	
O 0.0020012173338350915	0.728921085282983	0.018244298637074892	
O 0.4955565308450275	0.22648831691382204	0.018244298637074892	
O 0.5020012388267748	0.7710790639521117	0.9817556278033791	
O 0.004443437313580236	0.2735116639813426	0.5182445166417999	
O -0.0020012598420937593	0.728921085282983	0.4817555948033791	
O 0.7317555533922263	0.2507084673159235	0.7459210630611266	
O 0.26824433516259444	0.7604392813571696	0.2556900491541137	
O 0.7682445866758261	0.24929152790786763	0.2459211692351331	
O 0.2317556108033791	0.739560868355546	0.7556899843739172	
O 0.26824433516259444	0.2507084673159235	0.7540788100849987	
O 0.7317555533922263	0.7604392813571696	0.24430999223969627	
O 0.2317556108033791	0.24929152790786763	0.25407887215867686	
O 0.7682445866758261	0.739560868355546	0.7443098887722082	

K_POINTS automatic
6 6 6 0 0 0
