# Phonon frequency and phonon lifetime in meV 
# Q-point  Mode   Phonon freq (meV)   Phonon linewidth (meV)
        1     1     -0.39813757E-03      0.0000000000E+00
        1     2     -0.39813714E-03      0.0000000000E+00
        1     3     -0.18213121E-03      0.0000000000E+00
        1     4      0.30353754E+01      0.9481938071E-03
        1     5      0.15090768E+02      0.6924258032E-02
        1     6      0.27215005E+02      0.1439397470E-02
        1     7      0.27215005E+02      0.1439397470E-02
        1     8      0.30963141E+02      0.6695392069E-02
        1     9      0.30963141E+02      0.6695392069E-02
        1    10      0.31973138E+02      0.1024516979E+00
        1    11      0.36944404E+02      0.2114112715E-01
        1    12      0.36944404E+02      0.2114112715E-01
        1    13      0.39244675E+02      0.1817547983E-02
        1    14      0.39907890E+02      0.1522898020E-01
        1    15      0.39907890E+02      0.1522898020E-01
        1    16      0.47064349E+02      0.1101390882E-01
        1    17      0.47064349E+02      0.1101390882E-01
        1    18      0.57315299E+02      0.2771219066E-01
        1    19      0.80474907E+02      0.4583268214E-02
        1    20      0.80474907E+02      0.4583268214E-02
        1    21      0.88320902E+02      0.1990806696E-02
        1    22      0.90824921E+02      0.1697741519E+00
        1    23      0.92281821E+02      0.1196666575E-01
        1    24      0.12668358E+03      0.4672411006E-03
        2     1      0.16736572E+00      0.0000000000E+00
        2     2      0.16736572E+00      0.0000000000E+00
        2     3      0.34729814E+00      0.0000000000E+00
        2     4      0.30354146E+01      0.5434635170E-03
        2     5      0.15098193E+02      0.4445278123E-03
        2     6      0.27216321E+02      0.1375575514E-02
        2     7      0.27216321E+02      0.1375575514E-02
        2     8      0.30958220E+02      0.9198936240E-02
        2     9      0.30958220E+02      0.9198936240E-02
        2    10      0.31973401E+02      0.9286115577E-01
        2    11      0.36944501E+02      0.2129697695E-01
        2    12      0.36944501E+02      0.2129697695E-01
        2    13      0.39252237E+02      0.8560835593E-02
        2    14      0.39907218E+02      0.1497950483E-01
        2    15      0.39907218E+02      0.1497950483E-01
        2    16      0.47067122E+02      0.1075959354E-01
        2    17      0.47067122E+02      0.1075959354E-01
        2    18      0.57315212E+02      0.2611070741E-01
        2    19      0.80474377E+02      0.4409017043E-02
        2    20      0.80474377E+02      0.4409017043E-02
        2    21      0.88319972E+02      0.2086772179E-02
        2    22      0.90814620E+02      0.1805004763E+00
        2    23      0.92312527E+02      0.1513554488E-01
        2    24      0.12668460E+03      0.5029118870E-03
        3     1      0.33458631E+00      0.0000000000E+00
        3     2      0.33458631E+00      0.0000000000E+00
        3     3      0.69501077E+00     -0.9430697019E-02
        3     4      0.30355317E+01      0.4000083306E-03
        3     5      0.15120412E+02     -0.2887029463E-02
        3     6      0.27220261E+02      0.1591834569E-02
        3     7      0.27220261E+02      0.1591834569E-02
        3     8      0.30943475E+02      0.1265331468E-01
        3     9      0.30943475E+02      0.1265331468E-01
        3    10      0.31974187E+02      0.1001094761E+00
        3    11      0.36944790E+02      0.2015948858E-01
        3    12      0.36944790E+02      0.2015948858E-01
        3    13      0.39274875E+02      0.8850693295E-01
        3    14      0.39905212E+02      0.1331409744E-01
        3    15      0.39905212E+02      0.1331409744E-01
        3    16      0.47075428E+02      0.1410545470E-01
        3    17      0.47075428E+02      0.1410545470E-01
        3    18      0.57314951E+02      0.2692330363E-01
        3    19      0.80472788E+02      0.3592888353E-02
        3    20      0.80472788E+02      0.3592888353E-02
        3    21      0.88317185E+02      0.1900306017E-02
        3    22      0.90786741E+02      0.1456590712E+00
        3    23      0.92401565E+02      0.2370733174E-01
        3    24      0.12668764E+03      0.5890404222E-03
        4     1      0.50151541E+00      0.0000000000E+00
        4     2      0.50151541E+00      0.0000000000E+00
        4     3      0.10435378E+01     -0.7359716200E-02
        4     4      0.30357258E+01      0.7162207802E-03
        4     5      0.15157261E+02      0.2401446057E-01
        4     6      0.27226797E+02      0.2287528543E-02
        4     7      0.27226797E+02      0.2287528543E-02
        4     8      0.30918964E+02      0.1296642727E-01
        4     9      0.30918964E+02      0.1296642727E-01
        4    10      0.31975497E+02      0.1441044618E+00
        4    11      0.36945264E+02      0.1913694827E-01
        4    12      0.36945264E+02      0.1913694827E-01
        4    13      0.39312442E+02      0.1800826949E+00
        4    14      0.39901894E+02      0.1210828432E-01
        4    15      0.39901894E+02      0.1210828432E-01
        4    16      0.47089226E+02      0.1599103200E-01
        4    17      0.47089226E+02      0.1599103200E-01
        4    18      0.57314518E+02      0.2737965272E-01
        4    19      0.80470142E+02      0.2818233131E-02
        4    20      0.80470142E+02      0.2818233131E-02
        4    21      0.88312541E+02      0.2142577999E-02
        4    22      0.90748414E+02      0.1281812611E+00
        4    23      0.92541628E+02      0.1403121069E+00
        4    24      0.12669272E+03      0.7039449810E-03
        5     1      0.66800823E+00      0.7008414218E-04
        5     2      0.66800823E+00      0.7008414218E-04
        5     3      0.13932512E+01     -0.5181628377E-02
        5     4      0.30359952E+01      0.1963856801E-02
        5     5      0.15208473E+02      0.4760162693E-01
        5     6      0.27235882E+02      0.2670724778E-02
        5     7      0.27235882E+02      0.2670724778E-02
        5     8      0.30884784E+02      0.1131020936E-01
        5     9      0.30884784E+02      0.1131020936E-01
        5    10      0.31977326E+02      0.1614831165E+00
        5    11      0.36945908E+02      0.1802639259E-01
        5    12      0.36945908E+02      0.1802639259E-01
        5    13      0.39364696E+02      0.1985300692E+00
        5    14      0.39897303E+02      0.1126034321E-01
        5    15      0.39897303E+02      0.1126034321E-01
        5    16      0.47108449E+02      0.1371301891E-01
        5    17      0.47108449E+02      0.1371301891E-01
        5    18      0.57313911E+02      0.2463174995E-01
        5    19      0.80466442E+02      0.2541318881E-02
        5    20      0.80466442E+02      0.2541318881E-02
        5    21      0.88306044E+02      0.3314034817E-02
        5    22      0.90707357E+02      0.1602757798E+00
        5    23      0.92724709E+02      0.6423306506E+00
        5    24      0.12669983E+03      0.1491995442E-02
        6     1      0.83392088E+00      0.1310759336E-03
        6     2      0.83392088E+00      0.1310759336E-03
        6     3      0.17444823E+01      0.5034428609E-02
        6     4      0.30363374E+01      0.1739697716E-02
        6     5      0.15273686E+02      0.8341842473E-01
        6     6      0.27247449E+02      0.2755543908E-02
        6     7      0.27247449E+02      0.2755543908E-02
        6     8      0.30841074E+02      0.1152509854E-01
        6     9      0.30841074E+02      0.1152509854E-01
        6    10      0.31979673E+02      0.1575438785E+00
        6    11      0.36946706E+02      0.1430649702E-01
        6    12      0.36946706E+02      0.1430649702E-01
        6    13      0.39431303E+02      0.2138613200E+00
        6    14      0.39891492E+02      0.9053004452E-02
        6    15      0.39891492E+02      0.9053004452E-02
        6    16      0.47133005E+02      0.1305257258E-01
        6    17      0.47133005E+02      0.1305257258E-01
        6    18      0.57313132E+02      0.2133833035E-01
        6    19      0.80461692E+02      0.2520861052E-02
        6    20      0.80461692E+02      0.2520861052E-02
        6    21      0.88297698E+02      0.4224325048E-02
        6    22      0.90669794E+02      0.2726332802E+00
        6    23      0.92944179E+02      0.1133305964E+01
        6    24      0.12670897E+03      0.4915893543E-02
        7     1      0.99911069E+00      0.1967710142E-03
        7     2      0.99911069E+00      0.1967710142E-03
        7     3      0.20975121E+01     -0.7258229840E-02
        7     4      0.30367494E+01      0.2417305089E-03
        7     5      0.15352454E+02      0.8127299774E-01
        7     6      0.27261403E+02      0.3133802793E-02
        7     7      0.27261403E+02      0.3133802793E-02
        7     8      0.30788013E+02      0.1059276232E-01
        7     9      0.30788013E+02      0.1059276232E-01
        7    10      0.31982532E+02      0.1607393338E+00
        7    11      0.36947636E+02      0.1513960520E-01
        7    12      0.36947636E+02      0.1513960520E-01
        7    13      0.39511843E+02      0.2472637909E+00
        7    14      0.39884526E+02      0.9571934303E-02
        7    15      0.39884526E+02      0.9571934303E-02
        7    16      0.47162778E+02      0.1234237533E-01
        7    17      0.47162778E+02      0.1234237533E-01
        7    18      0.57312180E+02      0.2134688409E-01
        7    19      0.80455897E+02      0.2587272816E-02
        7    20      0.80455897E+02      0.2587272816E-02
        7    21      0.88287508E+02      0.4340826473E-02
        7    22      0.90640066E+02      0.3612743259E+00
        7    23      0.93195181E+02      0.1217126770E+01
        7    24      0.12672017E+03      0.8853072720E-02
        8     1      0.11634366E+01      0.2504405491E-03
        8     2      0.11634366E+01      0.2504405491E-03
        8     3      0.24525623E+01      0.3264088233E-02
        8     4      0.30372276E+01      0.2809759484E-03
        8     5      0.15444261E+02      0.1088901939E+00
        8     6      0.27277622E+02      0.2995306805E-02
        8     7      0.27277622E+02      0.2995306805E-02
        8     8      0.30725831E+02      0.1084874194E-01
        8     9      0.30725831E+02      0.1084874194E-01
        8    10      0.31985898E+02      0.1574193311E+00
        8    11      0.36948673E+02      0.1611944640E-01
        8    12      0.36948673E+02      0.1611944640E-01
        8    13      0.39605810E+02      0.2785656236E+00
        8    14      0.39876482E+02      0.1030366904E-01
        8    15      0.39876482E+02      0.1030366904E-01
        8    16      0.47197632E+02      0.1219335461E-01
        8    17      0.47197632E+02      0.1219335461E-01
        8    18      0.57311057E+02      0.2085944299E-01
        8    19      0.80449064E+02      0.2594459583E-02
        8    20      0.80449064E+02      0.2594459583E-02
        8    21      0.88275481E+02      0.4420561115E-02
        8    22      0.90620974E+02      0.4039853222E+00
        8    23      0.93474287E+02      0.1239020984E+01
        8    24      0.12673340E+03      0.9777100369E-02
        9     1      0.13267593E+01      0.5425182840E-03
        9     2      0.13267593E+01      0.5425182840E-03
        9     3      0.28097904E+01      0.7723240955E-02
        9     4      0.30377676E+01     -0.3154232248E-03
        9     5      0.15548535E+02      0.1121132810E+00
        9     6      0.27295944E+02      0.2669560046E-02
        9     7      0.27295944E+02      0.2669560046E-02
        9     8      0.30654806E+02      0.1077502895E-01
        9     9      0.30654806E+02      0.1077502895E-01
        9    10      0.31989765E+02      0.1516805714E+00
        9    11      0.36949789E+02      0.1776363030E-01
        9    12      0.36949789E+02      0.1776363030E-01
        9    13      0.39712628E+02      0.3210073301E+00
        9    14      0.39867447E+02      0.1161020209E-01
        9    15      0.39867447E+02      0.1161020209E-01
        9    16      0.47237409E+02      0.1242001021E-01
        9    17      0.47237409E+02      0.1242001021E-01
        9    18      0.57309763E+02      0.1925892030E-01
        9    19      0.80441201E+02      0.2749868160E-02
        9    20      0.80441201E+02      0.2749868160E-02
        9    21      0.88261624E+02      0.4928274427E-02
        9    22      0.90614224E+02      0.3901199322E+00
        9    23      0.93779053E+02      0.1181552212E+01
        9    24      0.12674870E+03      0.9645392850E-02
       10     1      0.14889419E+01      0.6398610863E-03
       10     2      0.14889419E+01      0.6398610863E-03
       10     3      0.30383645E+01     -0.2820766094E-03
       10     4      0.31692864E+01      0.1662626717E-03
       10     5      0.15664663E+02      0.1092202415E+00
       10     6      0.27316167E+02      0.2970238773E-02
       10     7      0.27316167E+02      0.2970238773E-02
       10     8      0.30575278E+02      0.1100747418E-01
       10     9      0.30575278E+02      0.1100747418E-01
       10    10      0.31994126E+02      0.1621704599E+00
       10    11      0.36950952E+02      0.1752770943E-01
       10    12      0.36950952E+02      0.1752770943E-01
       10    13      0.39831649E+02      0.3426494297E+00
       10    14      0.39857516E+02      0.1148540949E-01
       10    15      0.39857516E+02      0.1148540949E-01
       10    16      0.47281938E+02      0.1314384704E-01
       10    17      0.47281938E+02      0.1314384704E-01
       10    18      0.57308300E+02      0.2213123903E-01
       10    19      0.80432317E+02      0.2967804127E-02
       10    20      0.80432317E+02      0.2967804127E-02
       10    21      0.88245948E+02      0.5879211174E-02
       10    22      0.90620787E+02      0.4146998416E+00
       10    23      0.94107671E+02      0.1247334046E+01
       10    24      0.12676606E+03      0.9978469841E-02
       11     1      0.16498499E+01      0.8370189427E-03
       11     2      0.16498499E+01      0.8370189427E-03
       11     3      0.30390128E+01     -0.7122153707E-03
       11     4      0.35310716E+01     -0.6403808074E-02
       11     5      0.15792004E+02      0.1131337409E+00
       11     6      0.27338026E+02      0.3283922706E-02
       11     7      0.27338026E+02      0.3283922706E-02
       11     8      0.30487656E+02      0.9537384456E-02
       11     9      0.30487656E+02      0.9537384456E-02
       11    10      0.31998973E+02      0.1581728895E+00
       11    11      0.36952131E+02      0.2129142862E-01
       11    12      0.36952131E+02      0.2129142862E-01
       11    13      0.39846790E+02      0.1362742426E-01
       11    14      0.39846790E+02      0.1362742426E-01
       11    15      0.39962166E+02      0.3712157478E+00
       11    16      0.47331029E+02      0.1272555513E-01
       11    17      0.47331029E+02      0.1272555513E-01
       11    18      0.57306667E+02      0.2481449841E-01
       11    19      0.80422421E+02      0.3115406641E-02
       11    20      0.80422421E+02      0.3115406641E-02
       11    21      0.88228462E+02      0.7726259513E-02
       11    22      0.90641134E+02      0.4275994909E+00
       11    23      0.94458728E+02      0.1357124867E+01
       11    24      0.12678548E+03      0.1059777236E-01
       12     1      0.18093515E+01      0.1092681185E-02
       12     2      0.18093515E+01      0.1092681185E-02
       12     3      0.30397065E+01     -0.1159429085E-02
       12     4      0.38951006E+01      0.3235067962E-02
       12     5      0.15929907E+02      0.1226567503E+00
       12     6      0.27361185E+02      0.3576872902E-02
       12     7      0.27361185E+02      0.3576872902E-02
       12     8      0.30392434E+02      0.8215189396E-02
       12     9      0.30392434E+02      0.8215189396E-02
       12    10      0.32004296E+02      0.1501459095E+00
       12    11      0.36953293E+02      0.2288958317E-01
       12    12      0.36953293E+02      0.2288958317E-01
       12    13      0.39835375E+02      0.1509684732E-01
       12    14      0.39835375E+02      0.1509684732E-01
       12    15      0.40103420E+02      0.3880367666E+00
       12    16      0.47384485E+02      0.1133697113E-01
       12    17      0.47384485E+02      0.1133697113E-01
       12    18      0.57304867E+02      0.2464298582E-01
       12    19      0.80411526E+02      0.3218240447E-02
       12    20      0.80411526E+02      0.3218240447E-02
       12    21      0.88209177E+02      0.1176284230E-01
       12    22      0.90675400E+02      0.4894265940E+00
       12    23      0.94831051E+02      0.1612738223E+01
       12    24      0.12680699E+03      0.1096256703E-01
       13     1      0.19673182E+01      0.1263769946E-02
       13     2      0.19673182E+01      0.1263769946E-02
       13     3      0.30404389E+01      0.4538067566E-03
       13     4      0.42612635E+01      0.1901932427E-01
       13     5      0.16077719E+02      0.1313494063E+00
       13     6      0.27385211E+02      0.3621944007E-02
       13     7      0.27385211E+02      0.3621944007E-02
       13     8      0.30290211E+02      0.7038258686E-02
       13     9      0.30290211E+02      0.7038258686E-02
       13    10      0.32010087E+02      0.1390143264E+00
       13    11      0.36954404E+02      0.2058518187E-01
       13    12      0.36954404E+02      0.2058518187E-01
       13    13      0.39823379E+02      0.1392738528E-01
       13    14      0.39823379E+02      0.1392738528E-01
       13    15      0.40254611E+02      0.4213399707E+00
       13    16      0.47442096E+02      0.9047010645E-02
       13    17      0.47442096E+02      0.9047010645E-02
       13    18      0.57302900E+02      0.2115649914E-01
       13    19      0.80399642E+02      0.3414767117E-02
       13    20      0.80399642E+02      0.3414767117E-02
       13    21      0.88188107E+02      0.1385556787E-01
       13    22      0.90723482E+02      0.5228072861E+00
       13    23      0.95223612E+02      0.1879456979E+01
       13    24      0.12683057E+03      0.1297586578E-01
       14     1      0.21236247E+01      0.1528313270E-02
       14     2      0.21236247E+01      0.1528313270E-02
       14     3      0.30412030E+01      0.4620461138E-03
       14     4      0.46293911E+01      0.7240935195E-02
       14     5      0.16234797E+02      0.1216601852E+00
       14     6      0.27409543E+02      0.3923188085E-02
       14     7      0.27409543E+02      0.3923188085E-02
       14     8      0.30181722E+02      0.7133840179E-02
       14     9      0.30181722E+02      0.7133840179E-02
       14    10      0.32016333E+02      0.1277599901E+00
       14    11      0.36955430E+02      0.1822049293E-01
       14    12      0.36955430E+02      0.1822049293E-01
       14    13      0.39810911E+02      0.1245605967E-01
       14    14      0.39810911E+02      0.1245605967E-01
       14    15      0.40414902E+02      0.4908610736E+00
       14    16      0.47503646E+02      0.8404121140E-02
       14    17      0.47503646E+02      0.8404121140E-02
       14    18      0.57300768E+02      0.1953367949E-01
       14    19      0.80386785E+02      0.3542705884E-02
       14    20      0.80386785E+02      0.3542705884E-02
       14    21      0.88165266E+02      0.1734413344E-01
       14    22      0.90785109E+02      0.5034194147E+00
       14    23      0.95635465E+02      0.1901232400E+01
       14    24      0.12685626E+03      0.1461381766E-01
       15     1      0.22781497E+01      0.1786268047E-02
       15     2      0.22781497E+01      0.1786268047E-02
       15     3      0.30419912E+01      0.5789700537E-03
       15     4      0.49992593E+01      0.4340807834E-01
       15     5      0.16400519E+02      0.1555017337E+00
       15     6      0.27433447E+02      0.4516248563E-02
       15     7      0.27433447E+02      0.4516248563E-02
       15     8      0.30067878E+02      0.7271641273E-02
       15     9      0.30067878E+02      0.7271641273E-02
       15    10      0.32023025E+02      0.1562894081E+00
       15    11      0.36956339E+02      0.1537981841E-01
       15    12      0.36956339E+02      0.1537981841E-01
       15    13      0.39798082E+02      0.1085312786E-01
       15    14      0.39798082E+02      0.1085312786E-01
       15    15      0.40583433E+02      0.5671760688E+00
       15    16      0.47568917E+02      0.8245619372E-02
       15    17      0.47568917E+02      0.8245619372E-02
       15    18      0.57298472E+02      0.1888797870E-01
       15    19      0.80372967E+02      0.3498086442E-02
       15    20      0.80372967E+02      0.3498086442E-02
       15    21      0.88140668E+02      0.2098706235E-01
       15    22      0.90859888E+02      0.5494991685E+00
       15    23      0.96065701E+02      0.2154557697E+01
       15    24      0.12688404E+03      0.1583264856E-01
       16     1      0.24307756E+01      0.2073984103E-02
       16     2      0.24307756E+01      0.2073984103E-02
       16     3      0.30427955E+01      0.1232946313E-02
       16     4      0.53705958E+01      0.4430352056E-01
       16     5      0.16574289E+02      0.1580734248E+00
       16     6      0.27455964E+02      0.4704925086E-02
       16     7      0.27455964E+02      0.4704925086E-02
       16     8      0.29949823E+02      0.7079811620E-02
       16     9      0.29949823E+02      0.7079811620E-02
       16    10      0.32030149E+02      0.1380755617E+00
       16    11      0.36957098E+02      0.1474419339E-01
       16    12      0.36957098E+02      0.1474419339E-01
       16    13      0.39785000E+02      0.9973217720E-02
       16    14      0.39785000E+02      0.9973217720E-02
       16    15      0.40759325E+02      0.6902272997E+00
       16    16      0.47637686E+02      0.7961464217E-02
       16    17      0.47637686E+02      0.7961464217E-02
       16    18      0.57296014E+02      0.1905447659E-01
       16    19      0.80358205E+02      0.3451727248E-02
       16    20      0.80358205E+02      0.3451727248E-02
       16    21      0.88114331E+02      0.2427588335E-01
       16    22      0.90947335E+02      0.6257952062E+00
       16    23      0.96513429E+02      0.2573137454E+01
       16    24      0.12691392E+03      0.1718919470E-01
       17     1      0.25813891E+01      0.2174239218E-02
       17     2      0.25813891E+01      0.2174239218E-02
       17     3      0.30436076E+01      0.1779911131E-02
       17     4      0.57430861E+01      0.2234248398E-01
       17     5      0.16755546E+02      0.1478625522E+00
       17     6      0.27475829E+02      0.5120539114E-02
       17     7      0.27475829E+02      0.5120539114E-02
       17     8      0.29829006E+02      0.7687123437E-02
       17     9      0.29829006E+02      0.7687123437E-02
       17    10      0.32037693E+02      0.1542234427E+00
       17    11      0.36957679E+02      0.2056913548E-01
       17    12      0.36957679E+02      0.2056913548E-01
       17    13      0.39771771E+02      0.1374399181E-01
       17    14      0.39771771E+02      0.1374399181E-01
       17    15      0.40941691E+02      0.7103196159E+00
       17    16      0.47709729E+02      0.7911620495E-02
       17    17      0.47709729E+02      0.7911620495E-02
       17    18      0.57293396E+02      0.1807681481E-01
       17    19      0.80342515E+02      0.3350970973E-02
       17    20      0.80342515E+02      0.3350970973E-02
       17    21      0.88086273E+02      0.3444355562E-01
       17    22      0.91046897E+02      0.6392362316E+00
       17    23      0.96977752E+02      0.2851937595E+01
       17    24      0.12694592E+03      0.1860876321E-01
       18     1      0.27298815E+01      0.2354368380E-02
       18     2      0.27298815E+01      0.2354368380E-02
       18     3      0.30444187E+01      0.2585023011E-02
       18     4      0.61163801E+01      0.3722859834E-01
       18     5      0.16943764E+02      0.1609745447E+00
       18     6      0.27491376E+02      0.5733043114E-02
       18     7      0.27491376E+02      0.5733043114E-02
       18     8      0.29707280E+02      0.7539448417E-02
       18     9      0.29707280E+02      0.7539448417E-02
       18    10      0.32045644E+02      0.1690401944E+00
       18    11      0.36958050E+02      0.2045946507E-01
       18    12      0.36958050E+02      0.2045946507E-01
       18    13      0.39758497E+02      0.1404055144E-01
       18    14      0.39758497E+02      0.1404055144E-01
       18    15      0.41129644E+02      0.8830618698E+00
       18    16      0.47784827E+02      0.8279976645E-02
       18    17      0.47784827E+02      0.8279976645E-02
       18    18      0.57290619E+02      0.1990890416E-01
       18    19      0.80325914E+02      0.3834771704E-02
       18    20      0.80325914E+02      0.3834771704E-02
       18    21      0.88056512E+02      0.4296136264E-01
       18    22      0.91157968E+02      0.7224291160E+00
       18    23      0.97457764E+02      0.3278839027E+01
       18    24      0.12698003E+03      0.2066996910E-01
       19     1      0.28761487E+01      0.2481428379E-02
       19     2      0.28761487E+01      0.2481428379E-02
       19     3      0.30452199E+01      0.2629794813E-02
       19     4      0.64900984E+01      0.2874155076E-01
       19     5      0.17138455E+02      0.1516861894E+00
       19     6      0.27500429E+02      0.6341487953E-02
       19     7      0.27500429E+02      0.6341487953E-02
       19     8      0.29587006E+02      0.6951391027E-02
       19     9      0.29587006E+02      0.6951391027E-02
       19    10      0.32053986E+02      0.1732144205E+00
       19    11      0.36958187E+02      0.1612734895E-01
       19    12      0.36958187E+02      0.1612734895E-01
       19    13      0.39745279E+02      0.1119098365E-01
       19    14      0.39745279E+02      0.1119098365E-01
       19    15      0.41322301E+02      0.8437453201E+00
       19    16      0.47862759E+02      0.7799557194E-02
       19    17      0.47862759E+02      0.7799557194E-02
       19    18      0.57287685E+02      0.2092443132E-01
       19    19      0.80308421E+02      0.4231326201E-02
       19    20      0.80308421E+02      0.4231326201E-02
       19    21      0.88025070E+02      0.4984089760E-01
       19    22      0.91279904E+02      0.8702695058E+00
       19    23      0.97952538E+02      0.4133943073E+01
       19    24      0.12701625E+03      0.2638386413E-01
       20     1      0.30200916E+01      0.2663301352E-02
       20     2      0.30200916E+01      0.2663301352E-02
       20     3      0.30460017E+01      0.1518585709E-02
       20     4      0.68638384E+01      0.4088464092E-01
       20     5      0.17339172E+02      0.1574567139E+00
       20     6      0.27500203E+02      0.6802088786E-02
       20     7      0.27500203E+02      0.6802088786E-02
       20     8      0.29471152E+02      0.6255761051E-02
       20     9      0.29471152E+02      0.6255761051E-02
       20    10      0.32062706E+02      0.1781432444E+00
       20    11      0.36958064E+02      0.1459875503E-01
       20    12      0.36958064E+02      0.1459875503E-01
       20    13      0.39732211E+02      0.1020539536E-01
       20    14      0.39732211E+02      0.1020539536E-01
       20    15      0.41518793E+02      0.9276861078E+00
       20    16      0.47943311E+02      0.7121792241E-02
       20    17      0.47943311E+02      0.7121792241E-02
       20    18      0.57284597E+02      0.2052749748E-01
       20    19      0.80290055E+02      0.3763779126E-02
       20    20      0.80290055E+02      0.3763779126E-02
       20    21      0.87991968E+02      0.5842364809E-01
       20    22      0.91412030E+02      0.8923254765E+00
       20    23      0.98461127E+02      0.4530016038E+01
       20    24      0.12705460E+03      0.2971883666E-01
       21     1      0.30467546E+01      0.1922077649E-02
       21     2      0.31616166E+01      0.2888594233E-02
       21     3      0.31616166E+01      0.2888594233E-02
       21     4      0.72371806E+01      0.4483947669E-01
       21     5      0.17545510E+02      0.1537913194E+00
       21     6      0.27487282E+02      0.7158126310E-02
       21     7      0.27487282E+02      0.7158126310E-02
       21     8      0.29363316E+02      0.5507111409E-02
       21     9      0.29363316E+02      0.5507111409E-02
       21    10      0.32071787E+02      0.1781233342E+00
       21    11      0.36957659E+02      0.1483155293E-01
       21    12      0.36957659E+02      0.1483155293E-01
       21    13      0.39719383E+02      0.1097916176E-01
       21    14      0.39719383E+02      0.1097916176E-01
       21    15      0.41718269E+02      0.1244260663E+01
       21    16      0.48026273E+02      0.6415707133E-02
       21    17      0.48026273E+02      0.6415707133E-02
       21    18      0.57281357E+02      0.2019755505E-01
       21    19      0.80270836E+02      0.3648379788E-02
       21    20      0.80270836E+02      0.3648379788E-02
       21    21      0.87957229E+02      0.6808597983E-01
       21    22      0.91553651E+02      0.9211439584E+00
       21    23      0.98982561E+02      0.4787065112E+01
       21    24      0.12709505E+03      0.2991236778E-01
       22     1      0.30474690E+01      0.2016899669E-02
       22     2      0.33006351E+01      0.3248055381E-02
       22     3      0.33006351E+01      0.3248055381E-02
       22     4      0.76096940E+01      0.3677607909E-01
       22     5      0.17757098E+02      0.1468240877E+00
       22     6      0.27457766E+02      0.6958638506E-02
       22     7      0.27457766E+02      0.6958638506E-02
       22     8      0.29267574E+02      0.5540174406E-02
       22     9      0.29267574E+02      0.5540174406E-02
       22    10      0.32081215E+02      0.1832552329E+00
       22    11      0.36956951E+02      0.1346342753E-01