
&CONTROL
    calculation   = 'vc-relax'
    restart_mode  = 'from_scratch'
    prefix        = 'Landau_15'
    pseudo_dir    = '/cluster/scratch/mnoe/QE/pps'
    outdir        = './'
    forc_conv_thr = 1.0d-7
    etot_conv_thr = 1.0d-7

/
&SYSTEM
    ibrav       = 0
    nat         = 32
    ntyp        = 2
    ecutwfc     = 120
    occupations = 'smearing'
    degauss     = 7.35d-4
    tot_charge  = -0.0
/
&ELECTRONS
    conv_thr    = 1.0d-8
    diagonalization = 'david'
/


&IONS
ion_dynamics = 'bfgs'
/

&CELL
cell_dynamics = 'bfgs'
cell_dofree = 'all'
/
CELL_PARAMETERS angstrom
        7.3236460686         0.0000000000         0.0000000000
        0.0000000000         7.7495899200         0.0000000000
        0.0000000000         0.0000000000         7.3236460686

ATOMIC_SPECIES
W 183.84 W_ONCV_LDA-4.0.upf
O 15.9994 O_ONCV_LDA-3.0.upf

ATOMIC_POSITIONS crystal
W 0.25	0.2797690537884376	0.0	 0 0 0
W 0.7499999888852349	0.7202309462115624	0.0	 0 0 0
W 0.25	0.22023096190623523	0.5	 0 0 0
W 0.7499999888852349	0.779769044323295	0.5	 0 0 0
W 0.7499999888852349	0.2797690537884376	0.5	 0 0 0
W 0.25	0.7202309462115624	0.5	 0 0 0
W 0.7499999888852349	0.22023096190623523	0.0	 0 0 0
W 0.25	0.779769044323295	0.0	 0 0 0
O 0.25	0.0077503634246621645	0.0	 0 0 0
O 0.7499999888852349	0.9922496449872086	0.0	 0 0 0
O 0.25	0.4922496355220661	0.5	 0 0 0
O 0.7499999888852349	0.5077503550127914	0.5	 0 0 0
O 0.7499999888852349	0.0077503634246621645	0.5	 0 0 0
O 0.25	0.9922496449872086	0.5	 0 0 0
O 0.7499999888852349	0.4922496355220661	0.0	 0 0 0
O 0.25	0.5077503550127914	0.0	 0 0 0
O 0.5	0.25	0.45465278623182775	 0 0 0
O 0.5	0.7499999954200923	0.5453472036923752	 0 0 0
O 0.0	0.25	0.9546528192318278	 0 0 0
O 0.0	0.7499999954200923	0.04534721031733324	 0 0 0
O 0.5	0.25	0.04534721031733324	 0 0 0
O 0.5	0.7499999954200923	0.9546528192318278	 0 0 0
O 0.0	0.25	0.5453472036923752	 0 0 0
O 0.0	0.7499999954200923	0.45465278623182775	 0 0 0
O 0.7046528074223899	0.25	0.7499999888852349	 0 0 0
O 0.2953472026534071	0.7499999954200923	0.25	 0 0 0
O 0.7953472148071403	0.25	0.25	 0 0 0
O 0.2046528022318278	0.7499999954200923	0.7499999888852349	 0 0 0
O 0.2953472026534071	0.25	0.7499999888852349	 0 0 0
O 0.7046528074223899	0.7499999954200923	0.25	 0 0 0
O 0.2046528022318278	0.25	0.25	 0 0 0
O 0.7953472148071403	0.7499999954200923	0.7499999888852349	 0 0 0

K_POINTS automatic
6 6 6 0 0 0
