&CONTROL
    calculation   = 'scf'
    restart_mode  = 'from_scratch'
    prefix        = 'Landau_17'
    pseudo_dir    = '/cluster/scratch/mnoe/QE/pps'
    outdir        = './'
/
&SYSTEM
    ibrav       = 0
    nat         = 32
    ntyp        = 2
    ecutwfc     = 120
    occupations = 'smearing'
    degauss     = 7.35d-4
    tot_charge  = -0.6
/
&ELECTRONS
    conv_thr    = 1.0d-8
    diagonalization = 'david'
/

CELL_PARAMETERS angstrom
   7.377747332   0.000000000   0.000000000
   0.000000000   7.519242129   0.000000000
   0.000000000   0.000000000   7.377747332

ATOMIC_SPECIES
W 183.84 W_ONCV_LDA-4.0.upf
O 15.9994 O_ONCV_LDA-3.0.upf

ATOMIC_POSITIONS crystal
W 0.21942549065	0.2801629540383839	-0.0008754846999999982	
W 0.7508754952290727	0.7198370459616161	-0.030574466850000044	
W 0.28057450935	0.219837061525424	0.49912450934999997	
W 0.7491245062790728	0.7801629405164303	0.46942549065	
W 0.7805744773790728	0.2801629540383839	0.50087549065	
W 0.24912450935000002	0.7198370459616161	0.53057450935	
W 0.7194255241290728	0.219837061525424	0.0008755042499999522	
W 0.25087549065000003	0.7801629405164303	0.030574486399999996	
O 0.216373983	0.007857673534426372	-0.024394969400000008	
O 0.7743949544290728	-0.0078576623743933	-0.03362597534999997	
O 0.28362597535	0.49214232410365316	0.47560498045	
O 0.7256050215790728	0.5078576623743933	0.46637399659999995	
O 0.7836259603790728	0.007857673534426372	0.5243950050999999	
O 0.22560496685	-0.0078576623743933	0.53362598895	
O 0.7163740156290729	0.49214232410365316	0.024394963450000043	
O 0.2743949915	0.5078576623743933	0.033625969400000004	
O 0.5108204948999999	0.21374750254999997	0.4536896226179525	
O 0.5022184813	0.7732645198071193	0.5463103629877099	
O -0.01082046770000001	0.28625247195	0.9536896556179525	
O -0.0022184685499999973	0.7267355699571193	0.0463103775954249	
O 0.48917950509999997	0.21374750254999997	0.0463103775954249	
O 0.4977815186999999	0.7732645198071193	0.9536896556179525	
O 0.010820452400000014	0.28625247195	0.5463103629877099	
O 0.002218453250000002	0.7267355699571193	0.4536896226179525	
O 0.7036896460332174	0.27326447535	0.7477815377290729	
O 0.2963103683611203	0.7862525427571193	0.26082049490000003	
O 0.796310372008637	0.22673549914999996	0.24778157395	
O 0.2036896386179525	0.7137475470071193	0.7608205139290728	
O 0.2963103683611203	0.27326447535	0.7522185147790729	
O 0.7036896460332174	0.7862525427571193	0.23917956035000004	
O 0.2036896386179525	0.22673549914999996	0.2522184813000001	
O 0.796310372008637	0.7137475470071193	0.7391795385790728	

K_POINTS automatic
6 6 6 0 0 0
