
&CONTROL
    calculation   = 'vc-relax'
    restart_mode  = 'from_scratch'
    prefix        = 'Landau_4'
    pseudo_dir    = '/cluster/scratch/mnoe/QE/pps'
    outdir        = './'
    forc_conv_thr = 1.0d-7
    etot_conv_thr = 1.0d-7

/
&SYSTEM
    ibrav       = 0
    nat         = 32
    ntyp        = 2
    ecutwfc     = 120
    occupations = 'smearing'
    degauss     = 7.35d-4
    tot_charge  = -0.0
/
&ELECTRONS
    conv_thr    = 1.0d-8
    diagonalization = 'david'
/


&IONS
ion_dynamics = 'bfgs'
/

&CELL
cell_dynamics = 'bfgs'
cell_dofree = 'all'
/
CELL_PARAMETERS angstrom
        7.3236460686         0.0000000000         0.0000000000
        0.0000000000         7.7495899200         0.0000000000
        0.0000000000         0.0000000000         7.3236460686

ATOMIC_SPECIES
W 183.84 W_ONCV_LDA-4.0.upf
O 15.9994 O_ONCV_LDA-3.0.upf

ATOMIC_POSITIONS crystal
W 0.25	0.2813024165435834	0.0	 0 0 0
W 0.7499999970360627	0.7186975834564167	0.0	 0 0 0
W 0.25	0.21869759864166272	0.5	 0 0 0
W 0.7499999970360627	0.781302391286212	0.5	 0 0 0
W 0.7499999970360627	0.2813024165435834	0.5	 0 0 0
W 0.25	0.7186975834564167	0.5	 0 0 0
W 0.7499999970360627	0.21869759864166272	0.0	 0 0 0
W 0.25	0.781302391286212	0.0	 0 0 0
O 0.25	0.008168096913243243	0.0	 0 0 0
O 0.7499999970360627	0.991831922196589	0.0	 0 0 0
O 0.25	0.49183189693921764	0.5	 0 0 0
O 0.7499999970360627	0.508168077803411	0.5	 0 0 0
O 0.7499999970360627	0.008168096913243243	0.5	 0 0 0
O 0.25	0.991831922196589	0.5	 0 0 0
O 0.7499999970360627	0.49183189693921764	0.0	 0 0 0
O 0.25	0.508168077803411	0.0	 0 0 0
O 0.5	0.25	0.4509034125951541	 0 0 0
O 0.5	0.7499999877786913	0.5490965605179667	 0 0 0
O 0.0	0.25	0.950903445595154	 0 0 0
O 0.0	0.7499999877786913	0.04909659821795553	 0 0 0
O 0.5	0.25	0.04909659821795553	 0 0 0
O 0.5	0.7499999877786913	0.950903445595154	 0 0 0
O 0.0	0.25	0.5490965605179667	 0 0 0
O 0.0	0.7499999877786913	0.4509034125951541	 0 0 0
O 0.7009034424459706	0.25	0.7499999970360627	 0 0 0
O 0.29909658444090853	0.7499999877786913	0.25	 0 0 0
O 0.799096563481904	0.25	0.25	 0 0 0
O 0.2009034285951541	0.7499999877786913	0.7499999970360627	 0 0 0
O 0.29909658444090853	0.25	0.7499999970360627	 0 0 0
O 0.7009034424459706	0.7499999877786913	0.25	 0 0 0
O 0.2009034285951541	0.25	0.25	 0 0 0
O 0.799096563481904	0.7499999877786913	0.7499999970360627	 0 0 0

K_POINTS automatic
6 6 6 0 0 0
