&CONTROL
    calculation   = 'scf'
    restart_mode  = 'from_scratch'
    prefix        = 'Landau_5'
    pseudo_dir    = '/cluster/scratch/mnoe/QE/pps'
    outdir        = './'
/
&SYSTEM
    ibrav       = 0
    nat         = 32
    ntyp        = 2
    ecutwfc     = 120
    occupations = 'smearing'
    degauss     = 7.35d-4
    tot_charge  = -1.0
/
&ELECTRONS
    conv_thr    = 1.0d-8
    diagonalization = 'david'
/

CELL_PARAMETERS angstrom
   7.364231599   0.000000000   0.000000000
   0.000000000   7.709884920   0.000000000
   0.000000000   0.000000000   7.367629225

ATOMIC_SPECIES
W 183.84 W_ONCV_LDA-4.0.upf
O 15.9994 O_ONCV_LDA-3.0.upf

ATOMIC_POSITIONS crystal
W 0.245380002	0.27938381534954143	0.00437	
W 0.7546200018374402	0.7206161846504585	0.995630015	
W 0.254620015	0.2206162004731185	0.504369985	
W 0.7453799718374402	0.7793838098520012	0.495629982	
W 0.7546200018374402	0.27938381534954143	0.495629982	
W 0.245380002	0.7206161846504585	0.504369985	
W 0.7453799718374402	0.2206162004731185	0.995630015	
W 0.254620015	0.7793838098520012	0.00437	
O 0.241469999	0.007645413049106507	0.00136	
O 0.7585300358374402	0.9923545926750337	0.998640008	
O 0.258530017	0.4923545871774934	0.501359992	
O 0.7414699378374402	0.5076454073249663	0.498640008	
O 0.7585300358374402	0.007645413049106507	0.498640008	
O 0.241469999	0.9923545926750337	0.501359992	
O 0.7414699378374402	0.4923545871774934	0.998640008	
O 0.258530017	0.5076454073249663	0.00136	
O 0.50125998	0.241249988	0.4555947700134106	
O 0.49874002	0.7587500243398999	0.5444052241343691	
O 0.99874002	0.258750012	0.9555948030134106	
O 0.001260042	0.7412499703398999	0.04440522295210965	
O 0.49874002	0.241249988	0.04440522295210965	
O 0.50125998	0.7587500243398999	0.9555948030134106	
O 0.001260042	0.258750012	0.5444052241343691	
O 0.99874002	0.7412499703398999	0.4555947700134106	
O 0.7055947890281908	0.248090004	0.7480800318374402	
O 0.29440521682402954	0.7519099623398999	0.251919987	
O 0.7944052372969289	0.251909996	0.248080013	
O 0.2055947860134106	0.7480900323398999	0.7519199418374402	
O 0.29440521682402954	0.248090004	0.7519199418374402	
O 0.7055947890281908	0.7519099623398999	0.248080013	
O 0.2055947860134106	0.251909996	0.251919987	
O 0.7944052372969289	0.7480900323398999	0.7480800318374402	

K_POINTS automatic
6 6 6 0 0 0
