
&CONTROL
    calculation   = 'vc-relax'
    restart_mode  = 'from_scratch'
    prefix        = 'Landau_26'
    pseudo_dir    = '/cluster/scratch/mnoe/QE/pps'
    outdir        = './'
    forc_conv_thr = 1.0d-7
    etot_conv_thr = 1.0d-7

/
&SYSTEM
    ibrav       = 0
    nat         = 32
    ntyp        = 2
    ecutwfc     = 120
    occupations = 'smearing'
    degauss     = 7.35d-4
    tot_charge  = -0.0
/
&ELECTRONS
    conv_thr    = 1.0d-8
    diagonalization = 'david'
/


&IONS
ion_dynamics = 'bfgs'
/

&CELL
cell_dynamics = 'bfgs'
cell_dofree = 'all'
/
CELL_PARAMETERS angstrom
        7.3236460686         0.0000000000         0.0000000000
        0.0000000000         7.7495899200         0.0000000000
        0.0000000000         0.0000000000         7.3236460686

ATOMIC_SPECIES
W 183.84 W_ONCV_LDA-4.0.upf
O 15.9994 O_ONCV_LDA-3.0.upf

ATOMIC_POSITIONS crystal
W 0.261269982	0.2674403213351818	-0.988140006	 0 0 0
W 0.7381399292435189	0.7325596786648182	-0.988730034	 0 0 0
W 0.238730002	0.23255969846209804	-0.48814000599999996	 0 0 0
W 0.761859949243519	0.7674404700508639	-0.488730002	 0 0 0
W 0.738729957243519	0.2674403213351818	-0.5118600099999999	 0 0 0
W 0.26186001	0.7325596786648182	-0.511269982	 0 0 0
W 0.7612699212435189	0.23255969846209804	-1.011860026	 0 0 0
W 0.238140006	0.7674404700508639	-1.011269998	 0 0 0
O 0.274020032	0.004396183763938935	-0.976089984	 0 0 0
O 0.726089907243519	0.9956037284931796	-0.975980001	 0 0 0
O 0.225980001	0.49560387720886173	-0.47609	 0 0 0
O 0.7739099072435189	0.5043962715068204	-0.47598000100000004	 0 0 0
O 0.725979924243519	0.004396183763938935	-0.523909984	 0 0 0
O 0.273909984	0.9956037284931796	-0.524020032	 0 0 0
O 0.774019955243519	0.49560387720886173	-1.0239099839999999	 0 0 0
O 0.22609	0.5043962715068204	-1.0240200320000001	 0 0 0
O 0.494990005	0.278699984	-0.5152820618673595	 0 0 0
O 0.503280056	0.7296900229592012	-0.4847177638223984	 0 0 0
O 0.005010009	0.221300001	-1.0152820618673595	 0 0 0
O 0.996719976	0.7703101209592012	-0.9847180404564824	 0 0 0
O 0.505009995	0.278699984	-0.9847180404564824	 0 0 0
O 0.496719976	0.7296900229592012	-1.0152820618673595	 0 0 0
O 0.994990005	0.221300001	-0.4847177638223984	 0 0 0
O 0.003280014	0.7703101209592012	-0.5152820618673595	 0 0 0
O 0.7347178245788795	0.229689982	-0.25328009075648106	 0 0 0
O 0.26528198511087825	0.7213000569592012	-0.755009995	 0 0 0
O 0.7652822969340827	0.270310018	-0.753280056	 0 0 0
O 0.23471792213264045	0.7787000869592011	-0.25501008575648104	 0 0 0
O 0.26528198511087825	0.229689982	-1.246720052756481	 0 0 0
O 0.7347178245788795	0.7213000569592012	-0.744990005	 0 0 0
O 0.23471792213264045	0.270310018	-0.7467199760000001	 0 0 0
O 0.7652822969340827	0.7787000869592011	-1.244990081756481	 0 0 0

K_POINTS automatic
6 6 6 0 0 0
