# Phonon frequency and phonon lifetime in meV 
# Q-point  Mode   Phonon freq (meV)   Phonon linewidth (meV)
        1     1     -0.85943141E-04      0.0000000000E+00
        1     2     -0.85938294E-04      0.0000000000E+00
        1     3     -0.40377509E-04      0.0000000000E+00
        1     4      0.32843700E+01      0.3896986691E-03
        1     5      0.13543923E+02      0.3807637935E-02
        1     6      0.31295800E+02      0.3141597642E-02
        1     7      0.31295800E+02      0.3141597642E-02
        1     8      0.31358021E+02      0.7897847887E-02
        1     9      0.31358021E+02      0.7897847887E-02
        1    10      0.35660771E+02      0.3195513131E-01
        1    11      0.37775422E+02      0.1506371665E-01
        1    12      0.37775422E+02      0.1506371665E-01
        1    13      0.39512338E+02      0.8437213139E-02
        1    14      0.40659679E+02      0.9898885238E-02
        1    15      0.40659679E+02      0.9898885238E-02
        1    16      0.49135797E+02      0.1841971623E-01
        1    17      0.49135797E+02      0.1841971623E-01
        1    18      0.57241733E+02      0.4145203707E-01
        1    19      0.81555158E+02      0.6283868137E-02
        1    20      0.81555158E+02      0.6283868137E-02
        1    21      0.84391705E+02      0.2885763169E+00
        1    22      0.87003221E+02      0.1843336046E-01
        1    23      0.88824673E+02      0.1376192103E-02
        1    24      0.12503719E+03      0.4525744493E-03
        2     1      0.16635042E+00      0.0000000000E+00
        2     2      0.16635042E+00      0.0000000000E+00
        2     3      0.34499798E+00      0.0000000000E+00
        2     4      0.32849211E+01     -0.6782395748E-04
        2     5      0.13551679E+02      0.2741366970E-01
        2     6      0.31287493E+02      0.3413747009E-02
        2     7      0.31287493E+02      0.3413747009E-02
        2     8      0.31362400E+02      0.1012726938E-01
        2     9      0.31362400E+02      0.1012726938E-01
        2    10      0.35660972E+02      0.3934421561E-01
        2    11      0.37775241E+02      0.1677274038E-01
        2    12      0.37775241E+02      0.1677274038E-01
        2    13      0.39516155E+02      0.1461344643E-01
        2    14      0.40658710E+02      0.1080094926E-01
        2    15      0.40658710E+02      0.1080094926E-01
        2    16      0.49137729E+02      0.1983784623E-01
        2    17      0.49137729E+02      0.1983784623E-01
        2    18      0.57241659E+02      0.3747164217E-01
        2    19      0.81554585E+02      0.5911091652E-02
        2    20      0.81554585E+02      0.5911091652E-02
        2    21      0.84391540E+02      0.2783735000E+00
        2    22      0.87016452E+02      0.1928662020E-01
        2    23      0.88823986E+02      0.1174142237E-02
        2    24      0.12503809E+03      0.4631391134E-03
        3     1      0.33259014E+00      0.0000000000E+00
        3     2      0.33259014E+00      0.0000000000E+00
        3     3      0.68994108E+00     -0.5936369951E-03
        3     4      0.32865732E+01      0.3096040362E-03
        3     5      0.13574911E+02      0.4825479871E-01
        3     6      0.31266351E+02      0.6421725688E-02
        3     7      0.31266351E+02      0.6421725688E-02
        3     8      0.31371765E+02      0.1168783464E-01
        3     9      0.31371765E+02      0.1168783464E-01
        3    10      0.35661575E+02      0.6671765953E-01
        3    11      0.37774699E+02      0.1831745493E-01
        3    12      0.37774699E+02      0.1831745493E-01
        3    13      0.39527602E+02      0.6376534707E-01
        3    14      0.40655809E+02      0.1155645040E-01
        3    15      0.40655809E+02      0.1155645040E-01
        3    16      0.49143517E+02      0.2669483673E-01
        3    17      0.49143517E+02      0.2669483673E-01
        3    18      0.57241439E+02      0.3448201807E-01
        3    19      0.81552867E+02      0.4587954211E-02
        3    20      0.81552867E+02      0.4587954211E-02
        3    21      0.84391228E+02      0.2359338971E+00
        3    22      0.87055934E+02      0.3985335971E-01
        3    23      0.88821926E+02      0.8983982289E-03
        3    24      0.12504079E+03      0.5062415432E-03
        4     1      0.49860844E+00      0.0000000000E+00
        4     2      0.49860844E+00      0.0000000000E+00
        4     3      0.10347752E+01     -0.1023117027E-01
        4     4      0.32893214E+01      0.1083626187E-02
        4     5      0.13613503E+02      0.3194050797E-01
        4     6      0.31236414E+02      0.7410036333E-02
        4     7      0.31236414E+02      0.7410036333E-02
        4     8      0.31382087E+02      0.1077874665E-01
        4     9      0.31382087E+02      0.1077874665E-01
        4    10      0.35662580E+02      0.1053318125E+00
        4    11      0.37773795E+02      0.2486087113E-01
        4    12      0.37773795E+02      0.2486087113E-01
        4    13      0.39546663E+02      0.8716064510E-01
        4    14      0.40651003E+02      0.1491084287E-01
        4    15      0.40651003E+02      0.1491084287E-01
        4    16      0.49153138E+02      0.2418018662E-01
        4    17      0.49153138E+02      0.2418018662E-01
        4    18      0.57241073E+02      0.2745646316E-01
        4    19      0.81550007E+02      0.3804011102E-02
        4    20      0.81550007E+02      0.3804011102E-02
        4    21      0.84391283E+02      0.2473267514E+00
        4    22      0.87121072E+02      0.2237344605E+00
        4    23      0.88818493E+02      0.8838325055E-03
        4    24      0.12504528E+03      0.6796466209E-03
        5     1      0.66429477E+00     -0.8355864079E-05
        5     2      0.66429477E+00     -0.8355864079E-05
        5     3      0.13794474E+01     -0.1082021297E-01
        5     4      0.32931582E+01      0.1305809249E-02
        5     5      0.13667270E+02      0.5988734339E-01
        5     6      0.31198908E+02      0.8022304834E-02
        5     7      0.31198908E+02      0.8022304834E-02
        5     8      0.31392164E+02      0.1026171239E-01
        5     9      0.31392164E+02      0.1026171239E-01
        5    10      0.35663987E+02      0.1332984468E+00
        5    11      0.37772526E+02      0.3142518291E-01
        5    12      0.37772526E+02      0.3142518291E-01
        5    13      0.39573316E+02      0.1101500224E+00
        5    14      0.40644337E+02      0.1847150117E-01
        5    15      0.40644337E+02      0.1847150117E-01
        5    16      0.49166555E+02      0.2175072280E-01
        5    17      0.49166555E+02      0.2175072280E-01
        5    18      0.57240559E+02      0.2535975228E-01
        5    19      0.81546007E+02      0.4405737464E-02
        5    20      0.81546007E+02      0.4405737464E-02
        5    21      0.84392482E+02      0.2691422645E+00
        5    22      0.87210954E+02      0.2928288229E+00
        5    23      0.88813691E+02      0.9906285075E-03
        5    24      0.12505157E+03      0.1766425453E-02
        6     1      0.82953878E+00     -0.3769294987E-04
        6     2      0.82953878E+00     -0.3769294987E-04
        6     3      0.17239073E+01     -0.1927884140E-01
        6     4      0.32980728E+01      0.1189499143E-02
        6     5      0.13735955E+02      0.4973391550E-01
        6     6      0.31153969E+02      0.7871260135E-02
        6     7      0.31153969E+02      0.7871260135E-02
        6     8      0.31401893E+02      0.9281424940E-02
        6     9      0.31401893E+02      0.9281424940E-02
        6    10      0.35665799E+02      0.1475017916E+00
        6    11      0.37770891E+02      0.3587903749E-01
        6    12      0.37770891E+02      0.3587903749E-01
        6    13      0.39607524E+02      0.1259915650E+00
        6    14      0.40635868E+02      0.2129861036E-01
        6    15      0.40635868E+02      0.2129861036E-01
        6    16      0.49183715E+02      0.2013260075E-01
        6    17      0.49183715E+02      0.2013260075E-01
        6    18      0.57239900E+02      0.2589447872E-01
        6    19      0.81540873E+02      0.4547870340E-02
        6    20      0.81540873E+02      0.4547870340E-02
        6    21      0.84395761E+02      0.2499869806E+00
        6    22      0.87324457E+02      0.3032107950E+00
        6    23      0.88807524E+02      0.1194465398E-02
        6    24      0.12505967E+03      0.3284565010E-02
        7     1      0.99423039E+00      0.3545295197E-04
        7     2      0.99423039E+00      0.3545295197E-04
        7     3      0.20681069E+01     -0.2210874872E-01
        7     4      0.33040516E+01      0.1483448854E-02
        7     5      0.13819238E+02      0.8677910181E-01
        7     6      0.31101446E+02      0.8457769962E-02
        7     7      0.31101446E+02      0.8457769962E-02
        7     8      0.31411462E+02      0.8870078889E-02
        7     9      0.31411462E+02      0.8870078889E-02
        7    10      0.35668016E+02      0.1506460172E+00
        7    11      0.37768887E+02      0.3510577612E-01
        7    12      0.37768887E+02      0.3510577612E-01
        7    13      0.39649242E+02      0.1482205039E+00
        7    14      0.40625673E+02      0.2054328555E-01
        7    15      0.40625673E+02      0.2054328555E-01
        7    16      0.49204553E+02      0.2037912022E-01
        7    17      0.49204553E+02      0.2037912022E-01
        7    18      0.57239095E+02      0.2454001145E-01
        7    19      0.81534609E+02      0.4743321798E-02
        7    20      0.81534609E+02      0.4743321798E-02
        7    21      0.84402114E+02      0.2369927173E+00
        7    22      0.87460345E+02      0.3336269735E+00
        7    23      0.88799995E+02      0.1216550352E-02
        7    24      0.12506957E+03      0.4546354100E-02
        8     1      0.11582599E+01      0.1459439695E-03
        8     2      0.11582599E+01      0.1459439695E-03
        8     3      0.24120015E+01     -0.1939170284E-01
        8     4      0.33110783E+01      0.1281863508E-02
        8     5      0.13916740E+02      0.1225819105E+00
        8     6      0.31041151E+02      0.9401887304E-02
        8     7      0.31041151E+02      0.9401887304E-02
        8     8      0.31421112E+02      0.8619043575E-02
        8     9      0.31421112E+02      0.8619043575E-02
        8    10      0.35670638E+02      0.1584121963E+00
        8    11      0.37766510E+02      0.3441411095E-01
        8    12      0.37766510E+02      0.3441411095E-01
        8    13      0.39698413E+02      0.1802735067E+00
        8    14      0.40613841E+02      0.2055854307E-01
        8    15      0.40613841E+02      0.2055854307E-01
        8    16      0.49228991E+02      0.2096499586E-01
        8    17      0.49228991E+02      0.2096499586E-01
        8    18      0.57238145E+02      0.2347902107E-01
        8    19      0.81527224E+02      0.4514096206E-02
        8    20      0.81527224E+02      0.4514096206E-02
        8    21      0.84412515E+02      0.2265267979E+00
        8    22      0.87617357E+02      0.3742592837E+00
        8    23      0.88791110E+02      0.1211385721E-02
        8    24      0.12508129E+03      0.5223400569E-02
        9     1      0.13215179E+01      0.2444829713E-03
        9     2      0.13215179E+01      0.2444829713E-03
        9     3      0.27555506E+01     -0.2390965481E-01
        9     4      0.33191336E+01      0.1097776211E-02
        9     5      0.14028032E+02      0.1507683125E+00
        9     6      0.30972920E+02      0.8657614301E-02
        9     7      0.30972920E+02      0.8657614301E-02
        9     8      0.31431065E+02      0.7713645451E-02
        9     9      0.31431065E+02      0.7713645451E-02
        9    10      0.35673669E+02      0.1619658878E+00
        9    11      0.37763756E+02      0.3002225166E-01
        9    12      0.37763756E+02      0.3002225166E-01
        9    13      0.39754965E+02      0.2008530490E+00
        9    14      0.40600472E+02      0.1798293711E-01
        9    15      0.40600472E+02      0.1798293711E-01
        9    16      0.49256939E+02      0.1887601429E-01
        9    17      0.49256939E+02      0.1887601429E-01
        9    18      0.57237050E+02      0.2216206499E-01
        9    19      0.81518725E+02      0.4722048038E-02
        9    20      0.81518725E+02      0.4722048038E-02
        9    21      0.84427854E+02      0.2083784611E+00
        9    22      0.87794261E+02      0.4036527503E+00
        9    23      0.88780877E+02      0.1160344977E-02
        9    24      0.12509481E+03      0.5614012303E-02
       10     1      0.14838956E+01      0.5932337666E-03
       10     2      0.14838956E+01      0.5932337666E-03
       10     3      0.30987176E+01     -0.1095778127E-01
       10     4      0.33281958E+01      0.1538185359E-02
       10     5      0.14152638E+02      0.2124968790E+00
       10     6      0.30896636E+02      0.8635652994E-02
       10     7      0.30896636E+02      0.8635652994E-02
       10     8      0.31441507E+02      0.7598972717E-02
       10     9      0.31441507E+02      0.7598972717E-02
       10    10      0.35677110E+02      0.1561739929E+00
       10    11      0.37760621E+02      0.2904516374E-01
       10    12      0.37760621E+02      0.2904516374E-01
       10    13      0.39818815E+02      0.2232160016E+00
       10    14      0.40585681E+02      0.1757420900E-01
       10    15      0.40585681E+02      0.1757420900E-01
       10    16      0.49288297E+02      0.1910073795E-01
       10    17      0.49288297E+02      0.1910073795E-01
       10    18      0.57235811E+02      0.2326904759E-01
       10    19      0.81509123E+02      0.4732507424E-02
       10    20      0.81509123E+02      0.4732507424E-02
       10    21      0.84448906E+02      0.2128435825E+00
       10    22      0.87989895E+02      0.4469880058E+00
       10    23      0.88769303E+02      0.1157865668E-02
       10    24      0.12511016E+03      0.5894372412E-02
       11     1      0.16452848E+01      0.8040796887E-03
       11     2      0.16452848E+01      0.8040796887E-03
       11     3      0.33382406E+01      0.1758176042E-02
       11     4      0.34414710E+01     -0.1087238306E-01
       11     5      0.14290051E+02      0.2225513032E+00
       11     6      0.30812220E+02      0.7210495165E-02
       11     7      0.30812220E+02      0.7210495165E-02
       11     8      0.31452595E+02      0.6937811769E-02
       11     9      0.31452595E+02      0.6937811769E-02
       11    10      0.35680962E+02      0.1430208187E+00
       11    11      0.37757100E+02      0.3397049502E-01
       11    12      0.37757100E+02      0.3397049502E-01
       11    13      0.39889864E+02      0.2373928778E+00
       11    14      0.40569590E+02      0.2107673588E-01
       11    15      0.40569590E+02      0.2107673588E-01
       11    16      0.49322955E+02      0.1723750865E-01
       11    17      0.49322955E+02      0.1723750865E-01
       11    18      0.57234428E+02      0.2304718084E-01
       11    19      0.81498429E+02      0.4951009903E-02
       11    20      0.81498429E+02      0.4951009903E-02
       11    21      0.84476320E+02      0.2595376713E+00
       11    22      0.88203179E+02      0.4827505051E+00
       11    23      0.88756396E+02      0.1375860897E-02
       11    24      0.12512734E+03      0.5802456034E-02
       12     1      0.18055780E+01      0.9627271446E-03
       12     2      0.18055780E+01      0.9627271446E-03
       12     3      0.33492415E+01      0.1958139290E-02
       12     4      0.37837838E+01     -0.2038346669E-01
       12     5      0.14439729E+02      0.2146463710E+00
       12     6      0.30719630E+02      0.7382287715E-02
       12     7      0.30719630E+02      0.7382287715E-02
       12     8      0.31464457E+02      0.7006840312E-02
       12     9      0.31464457E+02      0.7006840312E-02
       12    10      0.35685228E+02      0.1413494948E+00
       12    11      0.37753189E+02      0.3646914360E-01
       12    12      0.37753189E+02      0.3646914360E-01
       12    13      0.39967997E+02      0.2667419700E+00
       12    14      0.40552330E+02      0.2294222194E-01
       12    15      0.40552330E+02      0.2294222194E-01
       12    16      0.49360797E+02      0.1507406312E-01
       12    17      0.49360797E+02      0.1507406312E-01
       12    18      0.57232902E+02      0.2175355343E-01
       12    19      0.81486655E+02      0.5437267321E-02
       12    20      0.81486655E+02      0.5437267321E-02
       12    21      0.84510615E+02      0.2738026773E+00
       12    22      0.88433118E+02      0.5215437700E+00
       12    23      0.88742166E+02      0.1563278044E-02
       12    24      0.12514634E+03      0.5492235555E-02
       13     1      0.19646686E+01      0.1158432083E-02
       13     2      0.19646686E+01      0.1158432083E-02
       13     3      0.33611697E+01      0.5441948581E-03
       13     4      0.41256345E+01     -0.2363950196E-01
       13     5      0.14601114E+02      0.2243093957E+00
       13     6      0.30618856E+02      0.7722008938E-02
       13     7      0.30618856E+02      0.7722008938E-02
       13     8      0.31477202E+02      0.6572568531E-02
       13     9      0.31477202E+02      0.6572568531E-02
       13    10      0.35689910E+02      0.1529542468E+00
       13    11      0.37748882E+02      0.3342271523E-01
       13    12      0.37748882E+02      0.3342271523E-01
       13    13      0.40053084E+02      0.3032539318E+00
       13    14      0.40534037E+02      0.2151945158E-01
       13    15      0.40534037E+02      0.2151945158E-01
       13    16      0.49401698E+02      0.1397288716E-01
       13    17      0.49401698E+02      0.1397288716E-01
       13    18      0.57231235E+02      0.2268842329E-01
       13    19      0.81473813E+02      0.5669928331E-02
       13    20      0.81473813E+02      0.5669928331E-02
       13    21      0.84552190E+02      0.2533726909E+00
       13    22      0.88678797E+02      0.5885088353E+00
       13    23      0.88726625E+02      0.1744036265E-02
       13    24      0.12516718E+03      0.5490300135E-02
       14     1      0.21224508E+01      0.1405948452E-02
       14     2      0.21224508E+01      0.1405948452E-02
       14     3      0.33739945E+01      0.3560967370E-03
       14     4      0.44670064E+01     -0.1851620182E-01
       14     5      0.14773631E+02      0.2444027513E+00
       14     6      0.30509910E+02      0.8293101148E-02
       14     7      0.30509910E+02      0.8293101148E-02
       14     8      0.31490923E+02      0.7543440679E-02
       14     9      0.31490923E+02      0.7543440679E-02
       14    10      0.35695010E+02      0.1622432827E+00
       14    11      0.37744175E+02      0.3421681185E-01
       14    12      0.37744175E+02      0.3421681185E-01
       14    13      0.40144976E+02      0.2982470879E+00
       14    14      0.40514852E+02      0.2182450772E-01
       14    15      0.40514852E+02      0.2182450772E-01
       14    16      0.49445530E+02      0.1500773527E-01
       14    17      0.49445530E+02      0.1500773527E-01
       14    18      0.57229427E+02      0.2688281179E-01
       14    19      0.81459920E+02      0.5806534916E-02
       14    20      0.81459920E+02      0.5806534916E-02
       14    21      0.84601332E+02      0.2664293454E+00
       14    22      0.88709783E+02      0.2026898305E-02
       14    23      0.88939372E+02      0.6609344858E+00
       14    24      0.12518986E+03      0.6209576645E-02
       15     1      0.22788200E+01      0.1692084657E-02
       15     2      0.22788200E+01      0.1692084657E-02
       15     3      0.33876834E+01      0.1264981372E-02
       15     4      0.48078878E+01     -0.1342731620E-01
       15     5      0.14956696E+02      0.2536050557E+00
       15     6      0.30392823E+02      0.7667130418E-02
       15     7      0.30392823E+02      0.7667130418E-02
       15     8      0.31505703E+02      0.7375173260E-02
       15     9      0.31505703E+02      0.7375173260E-02
       15    10      0.35700531E+02      0.1548567104E+00
       15    11      0.37739061E+02      0.3555389630E-01
       15    12      0.37739061E+02      0.3555389630E-01
       15    13      0.40243509E+02      0.3546427103E+00
       15    14      0.40494920E+02      0.2292303557E-01
       15    15      0.40494920E+02      0.2292303557E-01
       15    16      0.49492160E+02      0.1447987039E-01
       15    17      0.49492160E+02      0.1447987039E-01
       15    18      0.57227479E+02      0.2768217058E-01
       15    19      0.81444990E+02      0.5897264133E-02
       15    20      0.81444990E+02      0.5897264133E-02
       15    21      0.84658235E+02      0.2645663188E+00
       15    22      0.88691655E+02      0.2130201948E-02
       15    23      0.89214058E+02      0.7066704318E+00
       15    24      0.12521439E+03      0.6450169587E-02
       16     1      0.24336726E+01      0.2109430508E-02
       16     2      0.24336726E+01      0.2109430508E-02
       16     3      0.34022022E+01      0.9819430951E-03
       16     4      0.51482718E+01     -0.6735488701E-02
       16     5      0.15149724E+02      0.2742374363E+00
       16     6      0.30267646E+02      0.7965924382E-02
       16     7      0.30267646E+02      0.7965924382E-02
       16     8      0.31521616E+02      0.7443199484E-02
       16     9      0.31521616E+02      0.7443199484E-02
       16    10      0.35706475E+02      0.1485925747E+00
       16    11      0.37733537E+02      0.3451374271E-01
       16    12      0.37733537E+02      0.3451374271E-01
       16    13      0.40348499E+02      0.3562691401E+00
       16    14      0.40474387E+02      0.2286168065E-01
       16    15      0.40474387E+02      0.2286168065E-01
       16    16      0.49541450E+02      0.1307437766E-01
       16    17      0.49541450E+02      0.1307437766E-01
       16    18      0.57225393E+02      0.2645106282E-01
       16    19      0.81429040E+02      0.6456278243E-02
       16    20      0.81429040E+02      0.6456278243E-02
       16    21      0.84723011E+02      0.2723836903E+00
       16    22      0.88672253E+02      0.2411360780E-02
       16    23      0.89502120E+02      0.7847967785E+00
       16    24      0.12524077E+03      0.7234073640E-02
       17     1      0.25869068E+01      0.2313860109E-02
       17     2      0.25869068E+01      0.2313860109E-02
       17     3      0.34175152E+01      0.1176306895E-03
       17     4      0.54881557E+01      0.8805631161E-02
       17     5      0.15352132E+02      0.3041050864E+00
       17     6      0.30134442E+02      0.1012240163E-01
       17     7      0.30134442E+02      0.1012240163E-01
       17     8      0.31538731E+02      0.7512252776E-02
       17     9      0.31538731E+02      0.7512252776E-02
       17    10      0.35712845E+02      0.1640268787E+00
       17    11      0.37727598E+02      0.3167065210E-01
       17    12      0.37727598E+02      0.3167065210E-01
       17    13      0.40453398E+02      0.1298044860E+00
       17    14      0.40453398E+02      0.1298044860E+00
       17    15      0.40459747E+02      0.1298044860E+00
       17    16      0.49593265E+02      0.1523436458E-01
       17    17      0.49593265E+02      0.1523436458E-01
       17    18      0.57223169E+02      0.2442720879E-01
       17    19      0.81412089E+02      0.6727158470E-02
       17    20      0.81412089E+02      0.6727158470E-02
       17    21      0.84795697E+02      0.2739846044E+00
       17    22      0.88651593E+02      0.2647827277E-02
       17    23      0.89802863E+02      0.8433346910E+00
       17    24      0.12526901E+03      0.8155131454E-02
       18     1      0.27384220E+01      0.2569599980E-02
       18     2      0.27384220E+01      0.2569599980E-02
       18     3      0.34335856E+01      0.3721244416E-03
       18     4      0.58275406E+01      0.8202195597E-02
       18     5      0.15563344E+02      0.2880843885E+00
       18     6      0.29993288E+02      0.9567112963E-02
       18     7      0.29993288E+02      0.9567112963E-02
       18     8      0.31557113E+02      0.7045230837E-02
       18     9      0.31557113E+02      0.7045230837E-02
       18    10      0.35719643E+02      0.1602927202E+00
       18    11      0.37721240E+02      0.2541766096E-01
       18    12      0.37721240E+02      0.2541766096E-01
       18    13      0.40432097E+02      0.1854322422E-01
       18    14      0.40432097E+02      0.1854322422E-01
       18    15      0.40577032E+02      0.3698036658E+00
       18    16      0.49647466E+02      0.1550606112E-01
       18    17      0.49647466E+02      0.1550606112E-01
       18    18      0.57220809E+02      0.2436758163E-01
       18    19      0.81394154E+02      0.7346976847E-02
       18    20      0.81394154E+02      0.7346976847E-02
       18    21      0.84876273E+02      0.3018548181E+00
       18    22      0.88629690E+02      0.3137478737E-02
       18    23      0.90115624E+02      0.9109587130E+00
       18    24      0.12529911E+03      0.9032760854E-02
       19     1      0.28881194E+01      0.2851451387E-02
       19     2      0.28881194E+01      0.2851451387E-02
       19     3      0.34503753E+01     -0.5236695992E-03
       19     4      0.61664307E+01      0.1239192826E-01
       19     5      0.15782792E+02      0.2896995578E+00
       19     6      0.29844271E+02      0.9544362020E-02
       19     7      0.29844271E+02      0.9544362020E-02
       19     8      0.31576822E+02      0.7048894406E-02
       19     9      0.31576822E+02      0.7048894406E-02
       19    10      0.35726871E+02      0.1536633567E+00
       19    11      0.37714458E+02      0.1865122411E-01
       19    12      0.37714458E+02      0.1865122411E-01
       19    13      0.40410626E+02      0.1409111132E-01
       19    14      0.40410626E+02      0.1409111132E-01
       19    15      0.40700120E+02      0.4760993133E+00
       19    16      0.49703914E+02      0.1315846729E-01
       19    17      0.49703914E+02      0.1315846729E-01
       19    18      0.57218314E+02      0.2404165157E-01
       19    19      0.81375256E+02      0.6530155583E-02
       19    20      0.81375256E+02      0.6530155583E-02
       19    21      0.84964667E+02      0.3161293027E+00
       19    22      0.88606563E+02      0.3650220853E-02
       19    23      0.90439764E+02      0.9015816587E+00
       19    24      0.12533106E+03      0.9932818690E-02
       20     1      0.30359022E+01      0.3276346148E-02
       20     2      0.30359022E+01      0.3276346148E-02
       20     3      0.34678454E+01     -0.9033107334E-03
       20     4      0.65048325E+01      0.1762903492E-01
       20     5      0.16009922E+02      0.2939482525E+00
       20     6      0.29687490E+02      0.9441416265E-02
       20     7      0.29687490E+02      0.9441416265E-02
       20     8      0.31597918E+02      0.6986821772E-02
       20     9      0.31597918E+02      0.6986821772E-02
       20    10      0.35734532E+02      0.1505666608E+00
       20    11      0.37707249E+02      0.1785330383E-01
       20    12      0.37707249E+02      0.1785330383E-01
       20    13      0.40389124E+02      0.1380719360E-01
       20    14      0.40389124E+02      0.1380719360E-01
       20    15      0.40828759E+02      0.5123332244E+00
       20    16      0.49762472E+02      0.1366877302E-01
       20    17      0.49762472E+02      0.1366877302E-01
       20    18      0.57215686E+02      0.2421044026E-01
       20    19      0.81355416E+02      0.6852417426E-02
       20    20      0.81355416E+02      0.6852417426E-02
       20    21      0.85060763E+02      0.3456927181E+00
       20    22      0.88582228E+02      0.4276190423E-02
       20    23      0.90774665E+02      0.9514782437E+00
       20    24      0.12536489E+03      0.9872313726E-02
       21     1      0.31816755E+01      0.3686561109E-02
       21     2      0.31816755E+01      0.3686561109E-02
       21     3      0.34859562E+01      0.8074061668E-04
       21     4      0.68427537E+01      0.3421713668E-01
       21     5      0.16244196E+02      0.3243734395E+00
       21     6      0.29523051E+02      0.8009524491E-02
       21     7      0.29523051E+02      0.8009524491E-02
       21     8      0.31620456E+02      0.8370584439E-02
       21     9      0.31620456E+02      0.8370584439E-02
       21    10      0.35742628E+02      0.1576000331E+00
       21    11      0.37699612E+02      0.2440599303E-01
       21    12      0.37699612E+02      0.2440599303E-01
       21    13      0.40367724E+02      0.1794144295E-01
       21    14      0.40367724E+02      0.1794144295E-01
       21    15      0.40962681E+02      0.4551916786E+00
       21    16      0.49823005E+02      0.1185095048E-01
       21    17      0.49823005E+02      0.1185095048E-01
       21    18      0.57212927E+02      0.2305381966E-01
       21    19      0.81334654E+02      0.7020346872E-02
       21    20      0.81334654E+02      0.7020346872E-02
       21    21      0.85164410E+02      0.3678842618E+00
       21    22      0.88556704E+02      0.4681954886E-02
       21    23      0.91119726E+02      0.1099663976E+01
       21    24      0.12540057E+03      0.9465455683E-02
       22     1      0.33253471E+01      0.4348029481E-02
       22     2      0.33253471E+01      0.4348029481E-02
       22     3      0.35046676E+01      0.1739342535E-02
       22     4      0.71802027E+01      0.3362050312E-01
       22     5      0.16485088E+02      0.3242862501E+00
       22     6      0.29351071E+02      0.8670912044E-02
       22     7      0.29351071E+02      0.8670912044E-02
       22     8      0.31644490E+02      0.8969736944E-02
       22     9      0.31644490E+02      0.8969736944E-02
       22    10      0.35751160E+02      0.1727917512E+00
       22    11      0.37691544E+02      0.2589253595E-01