
&CONTROL
    calculation   = 'vc-relax'
    restart_mode  = 'from_scratch'
    prefix        = 'Landau_8'
    pseudo_dir    = '/cluster/scratch/mnoe/QE/pps'
    outdir        = './'
    forc_conv_thr = 1.0d-7
    etot_conv_thr = 1.0d-7

/
&SYSTEM
    ibrav       = 0
    nat         = 32
    ntyp        = 2
    ecutwfc     = 120
    occupations = 'smearing'
    degauss     = 7.35d-4
    tot_charge  = -0.0
/
&ELECTRONS
    conv_thr    = 1.0d-8
    diagonalization = 'david'
/


&IONS
ion_dynamics = 'bfgs'
/

&CELL
cell_dynamics = 'bfgs'
cell_dofree = 'all'
/
CELL_PARAMETERS angstrom
        7.3236460686         0.0000000000         0.0000000000
        0.0000000000         7.7495899200         0.0000000000
        0.0000000000         0.0000000000         7.3236460686

ATOMIC_SPECIES
W 183.84 W_ONCV_LDA-4.0.upf
O 15.9994 O_ONCV_LDA-3.0.upf

ATOMIC_POSITIONS crystal
        0.246300000         0.281860003         0.003490000 0 0 0
        0.753700049         0.718139997         0.996510002 0 0 0
        0.253700016         0.218140012         0.503489965 0 0 0
        0.746299951         0.781859972         0.496510002 0 0 0
        0.753700049         0.281860003         0.496510002 0 0 0
        0.246300000         0.718139997         0.503489965 0 0 0
        0.746299951         0.218140012         0.996510002 0 0 0
        0.253700016         0.781859972         0.003490000 0 0 0
        0.243180001         0.008320000         0.001090000 0 0 0
        0.756819950         0.991680023         0.998910027 0 0 0
        0.256819999         0.491679992         0.501090006 0 0 0
        0.743180050         0.508319977         0.498909994 0 0 0
        0.756819950         0.008320000         0.498909994 0 0 0
        0.243180001         0.991680023         0.501090006 0 0 0
        0.743180050         0.491679992         0.998910027 0 0 0
        0.256819999         0.508319977         0.001090000 0 0 0
        0.501010016         0.243000000         0.449540004 0 0 0
        0.498989984         0.756999969         0.550459963 0 0 0
        0.998989984         0.257000000         0.949540037 0 0 0
        0.001009941         0.743000000         0.050460012 0 0 0
        0.498989984         0.243000000         0.050460012 0 0 0
        0.501010016         0.756999969         0.949540037 0 0 0
        0.001009941         0.257000000         0.550459963 0 0 0
        0.998989984         0.743000000         0.449540004 0 0 0
        0.699540037         0.248469997         0.748470001 0 0 0
        0.300459996         0.751529987         0.251529999 0 0 0
        0.800459963         0.251529987         0.248470066 0 0 0
        0.199540020         0.748469982         0.751529999 0 0 0
        0.300459996         0.248469997         0.751529999 0 0 0
        0.699540037         0.751529987         0.248470066 0 0 0
        0.199540020         0.251529987         0.251529999 0 0 0
        0.800459963         0.748469982         0.748470001 0 0 0

K_POINTS automatic
6 6 6 0 0 0
