
&CONTROL
    calculation   = 'vc-relax'
    restart_mode  = 'from_scratch'
    prefix        = 'Landau_27'
    pseudo_dir    = '/cluster/scratch/mnoe/QE/pps'
    outdir        = './'
    forc_conv_thr = 1.0d-7
    etot_conv_thr = 1.0d-7

/
&SYSTEM
    ibrav       = 0
    nat         = 32
    ntyp        = 2
    ecutwfc     = 120
    occupations = 'smearing'
    degauss     = 7.35d-4
    tot_charge  = -0.0
/
&ELECTRONS
    conv_thr    = 1.0d-8
    diagonalization = 'david'
/


&IONS
ion_dynamics = 'bfgs'
/

&CELL
cell_dynamics = 'bfgs'
cell_dofree = 'all'
/
CELL_PARAMETERS angstrom
        7.3236460686         0.0000000000         0.0000000000
        0.0000000000         7.7495899200         0.0000000000
        0.0000000000         0.0000000000         7.3236460686

ATOMIC_SPECIES
W 183.84 W_ONCV_LDA-4.0.upf
O 15.9994 O_ONCV_LDA-3.0.upf

ATOMIC_POSITIONS crystal
0.27428001599999996	0.281860003	0.25070002499999994	 0 0 0
-0.25070001799999986	0.718139997	-0.725719968	 0 0 0
0.22572001699999994	0.218140012	0.7507000349999999	 0 0 0
0.750700025	0.781859972	0.7742800160000001	 0 0 0
0.7257199750000001	0.281860003	0.749299998	 0 0 0
0.25070003499999993	0.718139997	0.725720017	 0 0 0
-0.22571996799999994	0.218140012	-0.750700018	 0 0 0
0.24929999799999997	0.781859972	0.22571997500000002	 0 0 0
0.27669999700000003	0.00832	0.26936001299999995	 0 0 0
-0.26936004599999996	0.991680023	-0.7233000200000002	 0 0 0
0.22330005200000003	0.491679992	0.769360014	 0 0 0
0.7693600129999999	0.508319977	0.776699981	 0 0 0
0.7232999870000001	0.00832	0.7306400030000001	 0 0 0
0.26936003	0.991680023	0.723300036	 0 0 0
-0.22330002000000004	0.491679992	-0.7693600460000001	 0 0 0
0.23064001900000008	0.508319977	0.22329998700000003	 0 0 0
0.491410048	0.278789983	0.6995400039999999	 0 0 0
0.498229998	0.731529935	0.800459963	 0 0 0
-0.9914100320000001	0.22121001699999998	1.199540037	 0 0 0
0.0017700109999999936	0.768470036	0.300460012	 0 0 0
0.508589952	0.278789983	0.300460012	 0 0 0
0.501770002	0.731529935	1.199540037	 0 0 0
-0.00858997500000005	0.22121001699999998	0.800459963	 0 0 0
-1.0017700180000002	0.768470036	0.6995400039999999	 0 0 0
0.6995400369999999	0.23153001100000004	2.001770002	 0 0 0
0.300459996	0.721209971	0.49141003199999994	 0 0 0
0.800459963	0.26846998899999996	0.501770018	 0 0 0
0.19954001999999996	0.77879	1.991410048	 0 0 0
0.300459996	0.23153001100000004	0.9982300049999999	 0 0 0
0.699540037	0.721209971	0.508589968	 0 0 0
0.19954002	0.26846998899999996	0.4982299819999999	 0 0 0
0.800459963	0.77879	1.008589959	 0 0 0

K_POINTS automatic
6 6 6 0 0 0
