
&CONTROL
    calculation   = 'vc-relax'
    restart_mode  = 'from_scratch'
    prefix        = 'Landau_27'
    pseudo_dir    = '/cluster/scratch/mnoe/QE/pps'
    outdir        = './'
    forc_conv_thr = 1.0d-7
    etot_conv_thr = 1.0d-7

/
&SYSTEM
    ibrav       = 0
    nat         = 32
    ntyp        = 2
    ecutwfc     = 120
    occupations = 'smearing'
    degauss     = 7.35d-4
    tot_charge  = -0.0
/
&ELECTRONS
    conv_thr    = 1.0d-8
    diagonalization = 'david'
/


&IONS
ion_dynamics = 'bfgs'
/

&CELL
cell_dynamics = 'bfgs'
cell_dofree = 'all'
/
CELL_PARAMETERS angstrom
        7.3236460686         0.0000000000         0.0000000000
        0.0000000000         7.3236460686         0.0000000000
        0.0000000000         0.0000000000         7.7495899200

ATOMIC_SPECIES
W 183.84 W_ONCV_LDA-4.0.upf
O 15.9994 O_ONCV_LDA-3.0.upf

ATOMIC_POSITIONS crystal
W 0.238290004         0.237680001         0.218119991 0 0 0
W 0.761709996         0.762319950         0.218119991 0 0 0
W 0.237680001         0.761709996         0.781880024 0 0 0
W 0.762319950         0.238290004         0.781880024 0 0 0
W 0.261709996         0.737680018         0.281880024 0 0 0
W 0.738290037         0.262319982         0.281880024 0 0 0
W 0.262319982         0.261709996         0.718119976 0 0 0
W 0.737680018         0.738290037         0.718119976 0 0 0
O 0.225049995         0.225180002         0.491670026 0 0 0
O 0.774950037         0.774819998         0.491670026 0 0 0
O 0.225180002         0.774950037         0.508329974 0 0 0
O 0.774819998         0.225049995         0.508329974 0 0 0
O 0.274950005         0.725180035         0.008329987 0 0 0
O 0.725049995         0.274819998         0.008329987 0 0 0
O 0.274819998         0.274950005         0.991670026 0 0 0
O 0.725180035         0.725049995         0.991670026 0 0 0
O 0.199410008         0.496590002         0.271090007 0 0 0
O 0.800589976         0.503409998         0.271090007 0 0 0
O 0.496590002         0.800589976         0.728909993 0 0 0
O 0.503409998         0.199410008         0.728909993 0 0 0
O 0.300589976         0.996590002         0.228909993 0 0 0
O 0.699409992         0.003410012         0.228909993 0 0 0
O 0.003410012         0.300589976         0.771090007 0 0 0
O 0.996590002         0.699409992         0.771090007 0 0 0
O 0.994799993         0.199410008         0.220200008 0 0 0
O 0.005200028         0.800589976         0.220200008 0 0 0
O 0.199410008         0.005200028         0.779799992 0 0 0
O 0.800589976         0.994799993         0.779799992 0 0 0
O 0.505200040         0.699409992         0.279799992 0 0 0
O 0.494799960         0.300589976         0.279799992 0 0 0
O 0.300589976         0.505200040         0.720200008 0 0 0
O 0.699409992         0.494799960         0.720200008 0 0 0

K_POINTS automatic
6 6 6 0 0 0
