&CONTROL
    calculation   = 'scf'
    restart_mode  = 'from_scratch'
    prefix        = 'Landau_4'
    pseudo_dir    = '/cluster/scratch/mnoe/QE/pps'
    outdir        = './'
/
&SYSTEM
    ibrav       = 0
    nat         = 32
    ntyp        = 2
    ecutwfc     = 120
    occupations = 'smearing'
    degauss     = 7.35d-4
    tot_charge  = -1.0
/
&ELECTRONS
    conv_thr    = 1.0d-8
    diagonalization = 'david'
/

CELL_PARAMETERS angstrom
   7.331818185   0.000000000   0.000000000
   0.000000000   7.732416841   0.000000000
   0.000000000   0.000000000   7.331818185

ATOMIC_SPECIES
W 183.84 W_ONCV_LDA-4.0.upf
O 15.9994 O_ONCV_LDA-3.0.upf

ATOMIC_POSITIONS crystal
W 0.2428059978	0.2814606973619727	-0.00020599639999999966	
W 0.7502059988774289	0.7185393026380273	-0.007193992200000009	
W 0.2571940022	0.218539317770688	0.4997940022	
W 0.7497940014774289	0.7814606704744542	0.4928059978	
W 0.7571939946774289	0.2814606973619727	0.5002059978	
W 0.2497940022	0.7185393026380273	0.5071940022	
W 0.7428060056774289	0.218539317770688	0.00020600099999998822	
W 0.2502059978	0.7814606704744542	0.007193996799999998	
O 0.242087996	0.00821121730221797	-0.005739992800000002	
O 0.7557399892774289	-0.008211197088092525	-0.007911994199999994	
O 0.2579119942	0.491788776024389	0.4942599954	
O 0.7442600050774288	0.5082111970880925	0.4920879992	
O 0.7579119906774289	0.00821121730221797	0.5057400012	
O 0.2442599922	-0.008211197088092525	0.5079119974	
O 0.7420880036774289	0.491788776024389	0.00573999140000001	
O 0.255739998	0.5082111970880925	0.007911992800000002	
O 0.5025459988	0.24147000059999998	0.4505163848512829	
O 0.5005219956	0.7554739931899104	0.54948358652652	
O -0.0025459924000000023	0.2585299934	0.9505164178512829	
O -0.0005219925999999993	0.7445260049899104	0.04948362743421762	
O 0.4974540012	0.24147000059999998	0.04948362743421762	
O 0.4994780044	0.7554739931899104	0.9505164178512829	
O 0.002545988800000003	0.2585299934	0.54948358652652	
O 0.0005219890000000005	0.7445260049899104	0.4505163848512829	
O 0.7005164155960512	0.2554739942	0.7494780088774289	
O 0.29948361302614596	0.7585299985899104	0.2525459988	
O 0.7994835886490911	0.2445259998	0.2494780174	
O 0.20051640085128294	0.7414699995899104	0.7525460032774289	
O 0.29948361302614596	0.2554739942	0.7505220034774289	
O 0.7005164155960512	0.7585299985899104	0.24745401420000002	
O 0.20051640085128294	0.2445259998	0.2505219956	
O 0.7994835886490911	0.7414699995899104	0.7474540090774289	

K_POINTS automatic
6 6 6 0 0 0
