
&CONTROL
    calculation   = 'vc-relax'
    restart_mode  = 'from_scratch'
    prefix        = 'Landau_39'
    pseudo_dir    = '/cluster/scratch/mnoe/QE/pps'
    outdir        = './'
    forc_conv_thr = 1.0d-7
    etot_conv_thr = 1.0d-7

/
&SYSTEM
    ibrav       = 0
    nat         = 32
    ntyp        = 2
    ecutwfc     = 120
    occupations = 'smearing'
    degauss     = 7.35d-4
    tot_charge  = -0.0
/
&ELECTRONS
    conv_thr    = 1.0d-8
    diagonalization = 'david'
/


&IONS
ion_dynamics = 'bfgs'
/

&CELL
cell_dynamics = 'bfgs'
cell_dofree = 'all'
/
CELL_PARAMETERS angstrom
        7.3236460686         0.0000000000         0.0000000000
        0.0000000000         7.7495899200         0.0000000000
        0.0000000000         0.0000000000         7.3236460686

ATOMIC_SPECIES
W 183.84 W_ONCV_LDA-4.0.upf
O 15.9994 O_ONCV_LDA-3.0.upf

ATOMIC_POSITIONS crystal
W 0.26691002	0.2776943554896107	-0.982209969	 0 0 0
W 0.7322099467504293	0.7223056445103893	-0.983089964	 0 0 0
W 0.233089996	0.2223056609009874	-0.482210001	 0 0 0
W 0.7677899767504293	0.777694398598154	-0.483089996	 0 0 0
W 0.7330899417504293	0.2776943554896107	-0.517790015	 0 0 0
W 0.267790015	0.7223056445103893	-0.5169100200000001	 0 0 0
W 0.7669099817504292	0.2223056609009874	-1.0177899990000001	 0 0 0
W 0.232210001	0.777694398598154	-1.016910004	 0 0 0
O 0.286040002	0.007189686765746141	-0.964139982	 0 0 0
O 0.7141399597504292	0.9928102970316922	-0.963959998	 0 0 0
O 0.213960014	0.49281034014023556	-0.464139998	 0 0 0
O 0.7858599637504292	0.5071897029683078	-0.463960014	 0 0 0
O 0.7139599757504292	0.007189686765746141	-0.5358600179999999	 0 0 0
O 0.285860018	0.9928102970316922	-0.536040002	 0 0 0
O 0.7860400127504292	0.49281034014023556	-1.035859986	 0 0 0
O 0.214139998	0.5071897029683078	-1.036040035	 0 0 0
O 0.492490054	0.293039992	-0.5403551929311906	 0 0 0
O 0.504920003	0.7195300248589726	-0.4596447451790697	 0 0 0
O 0.007510006	0.206959992	-1.0403551929311907	 0 0 0
O 0.995079997	0.7804700168589725	-0.9596448140055581	 0 0 0
O 0.507510011	0.293039992	-0.9596448140055581	 0 0 0
O 0.495079997	0.7195300248589726	-1.0403551929311907	 0 0 0
O 0.992490021	0.206959992	-0.4596447451790697	 0 0 0
O 0.004920006	0.7804700168589725	-0.5403551929311906	 0 0 0
O 0.7096447514286405	0.219529989	-0.2549200282495707	 0 0 0
O 0.29035517068161987	0.7069599978589726	-0.757510011	 0 0 0
O 0.790355261070501	0.280470026	-0.754920003	 0 0 0
O 0.20964479106880932	0.7930400438589725	-0.25751002824957075	 0 0 0
O 0.29035517068161987	0.219529989	-1.2450800192495706	 0 0 0
O 0.7096447514286405	0.7069599978589726	-0.742490054	 0 0 0
O 0.20964479106880932	0.280470026	-0.7450799969999999	 0 0 0
O 0.790355261070501	0.7930400438589725	-1.2424900432495707	 0 0 0

K_POINTS automatic
6 6 6 0 0 0
