
&CONTROL
    calculation   = 'vc-relax'
    restart_mode  = 'from_scratch'
    prefix        = 'Landau_40'
    pseudo_dir    = '/cluster/scratch/mnoe/QE/pps'
    outdir        = './'
    forc_conv_thr = 1.0d-7
    etot_conv_thr = 1.0d-7

/
&SYSTEM
    ibrav       = 0
    nat         = 32
    ntyp        = 2
    ecutwfc     = 120
    occupations = 'smearing'
    degauss     = 7.35d-4
    tot_charge  = -0.0
/
&ELECTRONS
    conv_thr    = 1.0d-8
    diagonalization = 'david'
/


&IONS
ion_dynamics = 'bfgs'
/

&CELL
cell_dynamics = 'bfgs'
cell_dofree = 'all'
/
CELL_PARAMETERS angstrom
        7.3236460686         0.0000000000         0.0000000000
        0.0000000000         7.3236460686         0.0000000000
        0.0000000000         0.0000000000         7.7495899200

ATOMIC_SPECIES
W 183.84 W_ONCV_LDA-4.0.upf
O 15.9994 O_ONCV_LDA-3.0.upf

ATOMIC_POSITIONS crystal
W 0.232659994         0.231749996         0.218119991 0 0 0
W 0.767339973         0.768249987         0.218119991 0 0 0
W 0.231749996         0.767339973         0.781880024 0 0 0
W 0.768249987         0.232659994         0.781880024 0 0 0
W 0.267340006         0.731749980         0.281880024 0 0 0
W 0.732659994         0.268249987         0.281880024 0 0 0
W 0.268249987         0.267340006         0.718119976 0 0 0
W 0.731749980         0.732659994         0.718119976 0 0 0
O 0.213039988         0.213220004         0.491670026 0 0 0
O 0.786960012         0.786780028         0.491670026 0 0 0
O 0.213220004         0.786960012         0.508329974 0 0 0
O 0.786780028         0.213039988         0.508329974 0 0 0
O 0.286960012         0.713220004         0.008329987 0 0 0
O 0.713040020         0.286779996         0.008329987 0 0 0
O 0.286779996         0.286960012         0.991670026 0 0 0
O 0.713220004         0.713040020         0.991670026 0 0 0
O 0.199410008         0.494949990         0.281250015 0 0 0
O 0.800589976         0.505050010         0.281250015 0 0 0
O 0.494949990         0.800589976         0.718749985 0 0 0
O 0.505050010         0.199410008         0.718749985 0 0 0
O 0.300589976         0.994950023         0.218750000 0 0 0
O 0.699409992         0.005050004         0.218750000 0 0 0
O 0.005050004         0.300589976         0.781250015 0 0 0
O 0.994950023         0.699409992         0.781250015 0 0 0
O 0.992299944         0.199410008         0.205850001 0 0 0
O 0.007700026         0.800589976         0.205850001 0 0 0
O 0.199410008         0.007700026         0.794149969 0 0 0
O 0.800589976         0.992299944         0.794149969 0 0 0
O 0.507700024         0.699409992         0.294149999 0 0 0
O 0.492300042         0.300589976         0.294149999 0 0 0
O 0.300589976         0.507700024         0.705850031 0 0 0
O 0.699409992         0.492300042         0.705850031 0 0 0

K_POINTS automatic
6 6 6 0 0 0
