
&CONTROL
    calculation   = 'vc-relax'
    restart_mode  = 'from_scratch'
    prefix        = 'Landau_20'
    pseudo_dir    = '/cluster/scratch/mnoe/QE/pps'
    outdir        = './'
    forc_conv_thr = 1.0d-7
    etot_conv_thr = 1.0d-7

/
&SYSTEM
    ibrav       = 0
    nat         = 32
    ntyp        = 2
    ecutwfc     = 120
    occupations = 'smearing'
    degauss     = 7.35d-4
    tot_charge  = -0.0
/
&ELECTRONS
    conv_thr    = 1.0d-8
    diagonalization = 'david'
/


&IONS
ion_dynamics = 'bfgs'
/

&CELL
cell_dynamics = 'bfgs'
cell_dofree = 'all'
/
CELL_PARAMETERS angstrom
        7.3236460686         0.0000000000         0.0000000000
        0.0000000000         7.7495899200         0.0000000000
        0.0000000000         0.0000000000         7.3236460686

ATOMIC_SPECIES
W 183.84 W_ONCV_LDA-4.0.upf
O 15.9994 O_ONCV_LDA-3.0.upf

ATOMIC_POSITIONS crystal
W 0.240749992	0.2798716339159526	0.008740001	 0 0 0
W 0.7592499814305155	0.7201283660840474	0.991259965	 0 0 0
W 0.259249992	0.22012838174464014	0.508740003	 0 0 0
W 0.7407499974305155	0.7798716233943289	0.491259997	 0 0 0
W 0.7592499814305155	0.2798716339159526	0.491259997	 0 0 0
W 0.240749992	0.7201283660840474	0.508740003	 0 0 0
W 0.7407499974305155	0.22012838174464014	0.991259965	 0 0 0
W 0.259249992	0.7798716233943289	0.008740001	 0 0 0
O 0.232939999	0.007778309293558578	0.00272	 0 0 0
O 0.7670599584305154	0.992221699833993	0.997280016	 0 0 0
O 0.267059985	0.49222168931236926	0.502719984	 0 0 0
O 0.7329400204305155	0.507778300166007	0.497280016	 0 0 0
O 0.7670599584305154	0.007778309293558578	0.497280016	 0 0 0
O 0.232939999	0.992221699833993	0.502719984	 0 0 0
O 0.7329400204305155	0.49222168931236926	0.997280016	 0 0 0
O 0.267059985	0.507778300166007	0.00272	 0 0 0
O 0.502529988	0.232500008	0.4544019576366628	 0 0 0
O 0.497470012	0.7674999869088918	0.545598031162899	 0 0 0
O 0.997470012	0.267499977	0.9544019906366629	 0 0 0
O 0.002529979	0.7325000019088918	0.04559803986673924	 0 0 0
O 0.497470012	0.232500008	0.04559803986673924	 0 0 0
O 0.502529988	0.7674999869088918	0.9544019906366629	 0 0 0
O 0.002529979	0.267499977	0.545598031162899	 0 0 0
O 0.997470012	0.7325000019088918	0.4544019576366628	 0 0 0
O 0.7044019794065856	0.246179993	0.7461599504305155	 0 0 0
O 0.29559803179385263	0.7538199859088917	0.253840023	 0 0 0
O 0.7955980417323836	0.253820007	0.246160026	 0 0 0
O 0.20440197363666282	0.7461800029088917	0.7538400284305155	 0 0 0
O 0.29559803179385263	0.246179993	0.7538400284305155	 0 0 0
O 0.7044019794065856	0.7538199859088917	0.246160026	 0 0 0
O 0.20440197363666282	0.253820007	0.253840023	 0 0 0
O 0.7955980417323836	0.7461800029088917	0.7461599504305155	 0 0 0

K_POINTS automatic
6 6 6 0 0 0
