&CONTROL
    calculation   = 'scf'
    restart_mode  = 'from_scratch'
    prefix        = 'Landau_6'
    pseudo_dir    = '/cluster/scratch/mnoe/QE/pps'
    outdir        = './'
/
&SYSTEM
    ibrav       = 0
    nat         = 16
    ntyp        = 2
    ecutwfc     = 120
    occupations = 'smearing'
    degauss     = 7.35d-4
    tot_charge  = -0.18
/
&ELECTRONS
    conv_thr    = 1.0d-8
    diagonalization = 'david'
/

CELL_PARAMETERS angstrom
   5.208402732   0.000000000   0.000000000
   0.000000000   5.208402732   0.000000000
   0.000000000   0.000000000   7.721596010

ATOMIC_SPECIES
W 183.84 W_ONCV_LDA-4.0.upf
O 15.9994 O_ONCV_LDA-3.0.upf

ATOMIC_POSITIONS crystal
      0.2499999999999847	0.24999999999997277	0.21608301323284648	
      0.7500000229999866	0.7500000229999949	0.7839170017665735	
      0.7500000230000045	0.7500000230000116	0.2839170017671532	
      0.24999999999998193	0.2500000000000086	0.7160829982334266	
     0.24999999999993508	0.24999999999997943	0.48781522442439124	
     0.7500000229999982	0.7500000230000774	0.5121847755765004	
     0.7500000229999693	0.7500000230000046	0.012184788575609954	
     0.24999999999994446	0.25000000000001293	0.9878152244234975	
      0.45994245544695195	0.5400574985530306	0.25000000000001005	
      0.5400575445594524	0.4599425014405548	0.7499999999999997	
      0.04005752755311206	0.9599425014468548	0.250000000000001	
      0.9599424094406351	0.04005756155938888	0.750000000000049	
      0.9599425014468935	0.45994245544688456	0.2500000000000377	
      0.040057561559447695	0.5400575445594468	0.7499999999999941	
      0.5400574985530778	0.04005752755308996	0.24999999999997155	
      0.4599425014406393	0.9599424094406235	0.7499999999999388	

K_POINTS automatic
6 6 6 0 0 0
