
&CONTROL
    calculation   = 'vc-relax'
    restart_mode  = 'from_scratch'
    prefix        = 'Landau_22'
    pseudo_dir    = '/cluster/scratch/mnoe/QE/pps'
    outdir        = './'
    forc_conv_thr = 1.0d-7
    etot_conv_thr = 1.0d-7

/
&SYSTEM
    ibrav       = 0
    nat         = 32
    ntyp        = 2
    ecutwfc     = 120
    occupations = 'smearing'
    degauss     = 7.35d-4
    tot_charge  = -0.0
/
&ELECTRONS
    conv_thr    = 1.0d-8
    diagonalization = 'david'
/


&IONS
ion_dynamics = 'bfgs'
/

&CELL
cell_dynamics = 'bfgs'
cell_dofree = 'all'
/
CELL_PARAMETERS angstrom
        7.3236460686         0.0000000000         0.0000000000
        0.0000000000         7.7495899200         0.0000000000
        0.0000000000         0.0000000000         7.3236460686

ATOMIC_SPECIES
W 183.84 W_ONCV_LDA-4.0.upf
O 15.9994 O_ONCV_LDA-3.0.upf

ATOMIC_POSITIONS crystal
0.23983001	0.28385107568932	0.00961	 0 0 0
0.760169958	0.71614892431068	0.990390005	 0 0 0
0.26016999	0.21614893667232998	0.509609995	 0 0 0
0.739830042	0.78385104468932	0.490390005	 0 0 0
0.760169958	0.28385107568932	0.490390005	 0 0 0
0.23983001	0.71614892431068	0.509609995	 0 0 0
0.739830042	0.21614893667232998	0.990390005	 0 0 0
0.26016999	0.78385104468932	0.00961	 0 0 0
0.231229998	0.01208756397589	0.00299	 0 0 0
0.768770002	0.98791246377314	0.997009996	 0 0 0
0.268769986	0.48791242732055	0.502990004	 0 0 0
0.731229998	0.51208754713204	0.497009996	 0 0 0
0.768770002	0.01208756397589	0.497009996	 0 0 0
0.231229998	0.98791246377314	0.502990004	 0 0 0
0.731229998	0.48791242732055	0.997009996	 0 0 0
0.268769986	0.51208754713204	0.00299	 0 0 0
0.502780018	0.230749996	0.4598313349356	 0 0 0
0.497219982	0.769250019	0.54016864349725	 0 0 0
0.997219982	0.269250019	0.95983135949288	 0 0 0
0.002779961	0.73074995	0.04016868880356	 0 0 0
0.497219982	0.230749996	0.04016868880356	 0 0 0
0.502780018	0.769250019	0.95983135949288	 0 0 0
0.002779961	0.269250019	0.54016864349725	 0 0 0
0.997219982	0.73074995	0.4598313349356	 0 0 0
0.70983137373997	0.2458	0.745779968	 0 0 0
0.29016867350712	0.7542	0.254220016	 0 0 0
0.79016863769288	0.254199985	0.245779984	 0 0 0
0.20983135111149	0.745800031	0.754220032	 0 0 0
0.29016867350712	0.2458	0.754220032	 0 0 0
0.70983137373997	0.7542	0.245779984	 0 0 0
0.20983135111149	0.254199985	0.254220016	 0 0 0
0.79016863769288	0.745800031	0.745779968	 0 0 0

K_POINTS automatic
6 6 6 0 0 0
