
&CONTROL
    calculation   = 'vc-relax'
    restart_mode  = 'from_scratch'
    prefix        = 'Landau_13'
    pseudo_dir    = '/cluster/scratch/mnoe/QE/pps'
    outdir        = './'
    forc_conv_thr = 1.0d-7
    etot_conv_thr = 1.0d-7

/
&SYSTEM
    ibrav       = 0
    nat         = 32
    ntyp        = 2
    ecutwfc     = 120
    occupations = 'smearing'
    degauss     = 7.35d-4
    tot_charge  = -0.0
/
&ELECTRONS
    conv_thr    = 1.0d-8
    diagonalization = 'david'
/


&IONS
ion_dynamics = 'bfgs'
/

&CELL
cell_dynamics = 'bfgs'
cell_dofree = 'all'
/
CELL_PARAMETERS angstrom
        7.3236460686         0.0000000000         0.0000000000
        0.0000000000         7.7495899200         0.0000000000
        0.0000000000         0.0000000000         7.3236460686

ATOMIC_SPECIES
W 183.84 W_ONCV_LDA-4.0.upf
O 15.9994 O_ONCV_LDA-3.0.upf

ATOMIC_POSITIONS crystal
        0.243990009         0.281860003         0.005680000 0 0 0
        0.756010024         0.718139997         0.994319964 0 0 0
        0.256009991         0.218140012         0.505680036 0 0 0
        0.743989976         0.781859972         0.494319996 0 0 0
        0.756010024         0.281860003         0.494319996 0 0 0
        0.243990009         0.718139997         0.505680036 0 0 0
        0.743989976         0.218140012         0.994319964 0 0 0
        0.256009991         0.781859972         0.005680000 0 0 0
        0.238910011         0.008320000         0.001770000 0 0 0
        0.761089989         0.991680023         0.998229998 0 0 0
        0.261089973         0.491679992         0.501770034 0 0 0
        0.738910011         0.508319977         0.498229998 0 0 0
        0.761089989         0.008320000         0.498229998 0 0 0
        0.238910011         0.991680023         0.501770034 0 0 0
        0.738910011         0.491679992         0.998229998 0 0 0
        0.261089973         0.508319977         0.001770000 0 0 0
        0.501640006         0.238620002         0.449540004 0 0 0
        0.498359994         0.761380028         0.550459963 0 0 0
        0.998359961         0.261380028         0.949540037 0 0 0
        0.001640081         0.738620002         0.050460012 0 0 0
        0.498359994         0.238620002         0.050460012 0 0 0
        0.501640006         0.761380028         0.949540037 0 0 0
        0.001640081         0.261380028         0.550459963 0 0 0
        0.998359961         0.738620002         0.449540004 0 0 0
        0.699540037         0.247519999         0.747509991 0 0 0
        0.300459996         0.752480047         0.252489977 0 0 0
        0.800459963         0.252480001         0.247509958 0 0 0
        0.199540020         0.747519984         0.752490009 0 0 0
        0.300459996         0.247519999         0.752490009 0 0 0
        0.699540037         0.752480047         0.247509958 0 0 0
        0.199540020         0.252480001         0.252489977 0 0 0
        0.800459963         0.747519984         0.747509991 0 0 0

K_POINTS automatic
6 6 6 0 0 0
