
&CONTROL
    calculation   = 'vc-relax'
    restart_mode  = 'from_scratch'
    prefix        = 'Landau_2'
    pseudo_dir    = '/cluster/scratch/mnoe/QE/pps'
    outdir        = './'
    forc_conv_thr = 1.0d-7
    etot_conv_thr = 1.0d-7

/
&SYSTEM
    ibrav       = 0
    nat         = 32
    ntyp        = 2
    ecutwfc     = 120
    occupations = 'smearing'
    degauss     = 7.35d-4
    tot_charge  = -0.0
/
&ELECTRONS
    conv_thr    = 1.0d-8
    diagonalization = 'david'
/


&IONS
ion_dynamics = 'bfgs'
/

&CELL
cell_dynamics = 'bfgs'
cell_dofree = 'all'
/
CELL_PARAMETERS angstrom
        7.3236460686         0.0000000000         0.0000000000
        0.0000000000         7.7495899200         0.0000000000
        0.0000000000         0.0000000000         7.3236460686

ATOMIC_SPECIES
W 183.84 W_ONCV_LDA-4.0.upf
O 15.9994 O_ONCV_LDA-3.0.upf

ATOMIC_POSITIONS crystal
W 0.24878488601654905	0.28030999705674087	0.0005646777944218304	 0 0 0
W 0.7506332759592321	0.7196900029432591	-0.0011808088038201647	 0 0 0
W 0.2512151139834509	0.21969001845821517	0.500564678010901	 0 0 0
W 0.7493667079451748	0.7803099820203793	0.49881918926452024	 0 0 0
W 0.7512151047283672	0.28030999705674087	0.499435321989099	 0 0 0
W 0.24936671550173023	0.7196900029432591	0.5011808107354798	 0 0 0
W 0.7487848791760398	0.21969001845821517	-0.0005646766454173714	 0 0 0
W 0.25063328449826977	0.7803099820203793	0.0011808099528246238	 0 0 0
O 0.2482045548860081	0.007897732413399148	-0.00029707524198251996	 0 0 0
O 0.7516145909129025	-0.007897720227476715	-0.0008396055244224193	 0 0 0
O 0.25179544376516066	0.49210226473616164	0.4997029229096191	 0 0 0
O 0.7483853924919374	0.5078977202274767	0.49916039392605377	 0 0 0
O 0.75179543431025	0.007897732413399148	0.5002970757082451	 0 0 0
O 0.2483853978503974	-0.007897720227476715	0.5008396046918103	 0 0 0
O 0.74820454909459	0.49210226473616164	0.00029707489228551195	 0 0 0
O 0.25161460080077136	0.5078977202274767	0.0008396051747254114	 0 0 0
O 0.5003805037966582	0.24812379238431997	0.4533300735062799	 0 0 0
O 0.49987494103424235	0.7516217552427491	0.5466699104872705	 0 0 0
O -0.0003805043628345632	0.25187620611697853	0.9533301065062799	 0 0 0
O 0.0001250575503171989	0.7483782342191225	0.04666992807494998	 0 0 0
O 0.49961949620334173	0.24812379238431997	0.04666992807494998	 0 0 0
O 0.5001250589657577	0.7516217552427491	0.9533301065062799	 0 0 0
O 0.00038050129882248476	0.25187620611697853	0.5466699104872705	 0 0 0
O -0.00012506061432927733	0.7483782342191225	0.4533300735062799	 0 0 0
O 0.7033300977520266	0.2502013250509146	0.7497010854463945	 0 0 0
O 0.2966699182544229	0.7509646592390233	0.2504674277565581	 0 0 0
O 0.7966699187265678	0.2497986744495183	0.2497010963833544	 0 0 0
O 0.2033300895062799	0.7490353302561528	0.7504674200667847	 0 0 0
O 0.2966699182544229	0.2502013250509146	0.7502988994571467	 0 0 0
O 0.7033300977520266	0.7509646592390233	0.24953257549062843	 0 0 0
O 0.2033300895062799	0.2497986744495183	0.2502989068638321	 0 0 0
O 0.7966699187265678	0.7490353302561528	0.7495325648367565	 0 0 0

K_POINTS automatic
6 6 6 0 0 0
