# Phonon frequency and phonon lifetime in meV 
# Q-point  Mode   Phonon freq (meV)   Phonon linewidth (meV)
        1     1     -0.22473214E-02      0.0000000000E+00
        1     2     -0.22473211E-02      0.0000000000E+00
        1     3     -0.10431991E-02      0.0000000000E+00
        1     4      0.31600755E+01      0.5282516710E-03
        1     5      0.14382949E+02      0.2689220312E-02
        1     6      0.29490615E+02      0.1621573903E-02
        1     7      0.29490615E+02      0.1621573903E-02
        1     8      0.31212852E+02      0.6622243653E-02
        1     9      0.31212852E+02      0.6622243653E-02
        1    10      0.34133160E+02      0.5286287433E-01
        1    11      0.37321053E+02      0.1163740546E-01
        1    12      0.37321053E+02      0.1163740546E-01
        1    13      0.39527492E+02      0.4457720009E-02
        1    14      0.40284600E+02      0.7835226917E-02
        1    15      0.40284600E+02      0.7835226917E-02
        1    16      0.48168970E+02      0.1258014616E-01
        1    17      0.48168970E+02      0.1258014616E-01
        1    18      0.57291899E+02      0.3303447434E-01
        1    19      0.81039128E+02      0.5470232484E-02
        1    20      0.81039128E+02      0.5470232484E-02
        1    21      0.87620410E+02      0.2768601961E+00
        1    22      0.88602183E+02      0.1796932575E-02
        1    23      0.89577877E+02      0.1595171881E-01
        1    24      0.12584428E+03      0.4280546083E-03
        2     1      0.16780429E+00      0.0000000000E+00
        2     2      0.16780429E+00      0.0000000000E+00
        2     3      0.35688403E+00      0.0000000000E+00
        2     4      0.31603788E+01      0.1264935742E-02
        2     5      0.14390365E+02     -0.1233416343E-02
        2     6      0.29490956E+02      0.1761065057E-02
        2     7      0.29490956E+02      0.1761065057E-02
        2     8      0.31208622E+02      0.1038482904E-01
        2     9      0.31208622E+02      0.1038482904E-01
        2    10      0.34133417E+02      0.6039128099E-01
        2    11      0.37321048E+02      0.1555472464E-01
        2    12      0.37321048E+02      0.1555472464E-01
        2    13      0.39533098E+02      0.1153099335E-01
        2    14      0.40283780E+02      0.1000515891E-01
        2    15      0.40283780E+02      0.1000515891E-01
        2    16      0.48171253E+02      0.1427505390E-01
        2    17      0.48171253E+02      0.1427505390E-01
        2    18      0.57291815E+02      0.3423017301E-01
        2    19      0.81038578E+02      0.4863937294E-02
        2    20      0.81038578E+02      0.4863937294E-02
        2    21      0.87615451E+02      0.2332324614E+00
        2    22      0.88601372E+02      0.1581550647E-02
        2    23      0.89599028E+02      0.1728223250E-01
        2    24      0.12584522E+03      0.3941959817E-03
        3     1      0.33550587E+00      0.0000000000E+00
        3     2      0.33550587E+00      0.0000000000E+00
        3     3      0.71380612E+00     -0.4256278224E-02
        3     4      0.31612878E+01      0.1436981676E-02
        3     5      0.14412568E+02      0.1649435088E-01
        3     6      0.29491960E+02      0.2824181114E-02
        3     7      0.29491960E+02      0.2824181114E-02
        3     8      0.31195957E+02      0.1521717975E-01
        3     9      0.31195957E+02      0.1521717975E-01
        3    10      0.34134188E+02      0.9235829473E-01
        3    11      0.37321030E+02      0.2102190686E-01
        3    12      0.37321030E+02      0.2102190686E-01
        3    13      0.39549894E+02      0.7954165230E-01
        3    14      0.40281328E+02      0.1251342001E-01
        3    15      0.40281328E+02      0.1251342001E-01
        3    16      0.48178093E+02      0.1975796851E-01
        3    17      0.48178093E+02      0.1975796851E-01
        3    18      0.57291562E+02      0.3660319141E-01
        3    19      0.81036931E+02      0.3890074044E-02
        3    20      0.81036931E+02      0.3890074044E-02
        3    21      0.87601552E+02      0.1620416433E+00
        3    22      0.88598940E+02      0.1152284661E-02
        3    23      0.89661461E+02      0.2838056738E-01
        3    24      0.12584804E+03      0.4369780812E-03
        4     1      0.50295202E+00      0.0000000000E+00
        4     2      0.50295202E+00      0.0000000000E+00
        4     3      0.10707963E+01     -0.3871862153E-02
        4     4      0.31627999E+01      0.1159987186E-02
        4     5      0.14449435E+02      0.5075787730E-01
        4     6      0.29493564E+02      0.3250080127E-02
        4     7      0.29493564E+02      0.3250080127E-02
        4     8      0.31174943E+02      0.1575227277E-01
        4     9      0.31174943E+02      0.1575227277E-01
        4    10      0.34135471E+02      0.1073310679E+00
        4    11      0.37320996E+02      0.1928817008E-01
        4    12      0.37320996E+02      0.1928817008E-01
        4    13      0.39577805E+02      0.1170862441E+00
        4    14      0.40277269E+02      0.1129195957E-01
        4    15      0.40277269E+02      0.1129195957E-01
        4    16      0.48189460E+02      0.2251190375E-01
        4    17      0.48189460E+02      0.2251190375E-01
        4    18      0.57291142E+02      0.3287780629E-01
        4    19      0.81034188E+02      0.3182785534E-02
        4    20      0.81034188E+02      0.3182785534E-02
        4    21      0.87581301E+02      0.1768460331E+00
        4    22      0.88594890E+02      0.9855259413E-03
        4    23      0.89762473E+02      0.2231686823E+00
        4    24      0.12585273E+03      0.5054914473E-03
        5     1      0.67002167E+00      0.4120835065E-04
        5     2      0.67002167E+00      0.4120835065E-04
        5     3      0.14278818E+01     -0.6060830474E-02
        5     4      0.31649106E+01      0.9660800993E-03
        5     5      0.14500760E+02      0.6287221885E-01
        5     6      0.29495657E+02      0.3613328780E-02
        5     7      0.29495657E+02      0.3613328780E-02
        5     8      0.31145723E+02      0.1718646462E-01
        5     9      0.31145723E+02      0.1718646462E-01
        5    10      0.34137267E+02      0.1264180333E+00
        5    11      0.37320940E+02      0.2036867630E-01
        5    12      0.37320940E+02      0.2036867630E-01
        5    13      0.39616710E+02      0.1442271036E+00
        5    14      0.40271644E+02      0.1196727287E-01
        5    15      0.40271644E+02      0.1196727287E-01
        5    16      0.48205304E+02      0.2463359218E-01
        5    17      0.48205304E+02      0.2463359218E-01
        5    18      0.57290553E+02      0.3096890187E-01
        5    19      0.81030352E+02      0.3393616327E-02
        5    20      0.81030352E+02      0.3393616327E-02
        5    21      0.87558110E+02      0.2360529874E+00
        5    22      0.88589223E+02      0.1100859347E-02
        5    23      0.89898458E+02      0.5003760768E+00
        5    24      0.12585931E+03      0.1011919088E-02
        6     1      0.83659118E+00      0.8683246307E-04
        6     2      0.83659118E+00      0.8683246307E-04
        6     3      0.17850814E+01     -0.1090418194E-01
        6     4      0.31676139E+01      0.1519387815E-02
        6     5      0.14566263E+02      0.7240342001E-01
        6     6      0.29498073E+02      0.3899118891E-02
        6     7      0.29498073E+02      0.3899118891E-02
        6     8      0.31108512E+02      0.1611309065E-01
        6     9      0.31108512E+02      0.1611309065E-01
        6    10      0.34139572E+02      0.1368492552E+00
        6    11      0.37320852E+02      0.2371908424E-01
        6    12      0.37320852E+02      0.2371908424E-01
        6    13      0.39666442E+02      0.1880409603E+00
        6    14      0.40264510E+02      0.1411150109E-01
        6    15      0.40264510E+02      0.1411150109E-01
        6    16      0.48225559E+02      0.2297601309E-01
        6    17      0.48225559E+02      0.2297601309E-01
        6    18      0.57289797E+02      0.2910430366E-01
        6    19      0.81025428E+02      0.3748764060E-02
        6    20      0.81025428E+02      0.3748764060E-02
        6    21      0.87535444E+02      0.2478506797E+00
        6    22      0.88581944E+02      0.1300169077E-02
        6    23      0.90065681E+02      0.5286536033E+00
        6    24      0.12586777E+03      0.2302481157E-02
        7     1      0.10025370E+01      0.1196388926E-03
        7     2      0.10025370E+01      0.1196388926E-03
        7     3      0.21424027E+01     -0.1639364256E-01
        7     4      0.31709018E+01      0.1381353254E-02
        7     5      0.14645595E+02      0.7082900557E-01
        7     6      0.29500572E+02      0.3946486591E-02
        7     7      0.29500572E+02      0.3946486591E-02
        7     8      0.31063614E+02      0.1558914379E-01
        7     9      0.31063614E+02      0.1558914379E-01
        7    10      0.34142384E+02      0.1390068152E+00
        7    11      0.37320721E+02      0.2499367997E-01
        7    12      0.37320721E+02      0.2499367997E-01
        7    13      0.39726784E+02      0.2305615902E+00
        7    14      0.40255936E+02      0.1504950166E-01
        7    15      0.40255936E+02      0.1504950166E-01
        7    16      0.48250137E+02      0.2107218832E-01
        7    17      0.48250137E+02      0.2107218832E-01
        7    18      0.57288875E+02      0.2817078260E-01
        7    19      0.81019421E+02      0.4009571599E-02
        7    20      0.81019421E+02      0.4009571599E-02
        7    21      0.87516346E+02      0.2345119156E+00
        7    22      0.88573059E+02      0.1431867122E-02
        7    23      0.90260752E+02      0.5475052711E+00
        7    24      0.12587812E+03      0.3343396735E-02
        8     1      0.11677363E+01      0.1216497181E-03
        8     2      0.11677363E+01      0.1216497181E-03
        8     3      0.24998411E+01     -0.2581560641E-01
        8     4      0.31747648E+01      0.1428018035E-02
        8     5      0.14738351E+02      0.8239683261E-01
        8     6      0.29502817E+02      0.4340093682E-02
        8     7      0.29502817E+02      0.4340093682E-02
        8     8      0.31011436E+02      0.1343981889E-01
        8     9      0.31011436E+02      0.1343981889E-01
        8    10      0.34145701E+02      0.1488787925E+00
        8    11      0.37320535E+02      0.2927132592E-01
        8    12      0.37320535E+02      0.2927132592E-01
        8    13      0.39797480E+02      0.2720484455E+00
        8    14      0.40246006E+02      0.1708394501E-01
        8    15      0.40246006E+02      0.1708394501E-01
        8    16      0.48278939E+02      0.1926268209E-01
        8    17      0.48278939E+02      0.1926268209E-01
        8    18      0.57287786E+02      0.2974026278E-01
        8    19      0.81012338E+02      0.4173223786E-02
        8    20      0.81012338E+02      0.4173223786E-02
        8    21      0.87503260E+02      0.2530242303E+00
        8    22      0.88562573E+02      0.1438148341E-02
        8    23      0.90480808E+02      0.5759498508E+00
        8    24      0.12589037E+03      0.3384897465E-02
        9     1      0.13320668E+01      0.1477373382E-03
        9     2      0.13320668E+01      0.1477373382E-03
        9     3      0.28573780E+01     -0.3442857961E-01
        9     4      0.31791920E+01      0.9679928003E-03
        9     5      0.14844071E+02      0.9165043468E-01
        9     6      0.29504349E+02      0.4096972513E-02
        9     7      0.29504349E+02      0.4096972513E-02
        9     8      0.30952529E+02      0.1112601311E-01
        9     9      0.30952529E+02      0.1112601311E-01
        9    10      0.34149519E+02      0.1355864568E+00
        9    11      0.37320278E+02      0.3285182333E-01
        9    12      0.37320278E+02      0.3285182333E-01
        9    13      0.39878228E+02      0.2849706656E+00
        9    14      0.40234815E+02      0.1955256424E-01
        9    15      0.40234815E+02      0.1955256424E-01
        9    16      0.48311847E+02      0.1798102218E-01
        9    17      0.48311847E+02      0.1798102218E-01
        9    18      0.57286531E+02      0.3070515891E-01
        9    19      0.81004188E+02      0.4288319954E-02
        9    20      0.81004188E+02      0.4288319954E-02
        9    21      0.87498037E+02      0.2704681224E+00
        9    22      0.88550494E+02      0.1461098626E-02
        9    23      0.90723507E+02      0.6840056449E+00
        9    24      0.12590451E+03      0.3286357738E-02
       10     1      0.14954078E+01      0.1778095346E-03
       10     2      0.14954078E+01      0.1778095346E-03
       10     3      0.31841707E+01      0.4695089830E-03
       10     4      0.32149802E+01     -0.4543049231E-01
       10     5      0.14962257E+02      0.8296489389E-01
       10     6      0.29504529E+02      0.3677090895E-02
       10     7      0.29504529E+02      0.3677090895E-02
       10     8      0.30887626E+02      0.9697073384E-02
       10     9      0.30887626E+02      0.9697073384E-02
       10    10      0.34153835E+02      0.1239052439E+00
       10    11      0.37319935E+02      0.3129645605E-01
       10    12      0.37319935E+02      0.3129645605E-01
       10    13      0.39968686E+02      0.2658669578E+00
       10    14      0.40222466E+02      0.1887533060E-01
       10    15      0.40222466E+02      0.1887533060E-01
       10    16      0.48348734E+02      0.1634595970E-01
       10    17      0.48348734E+02      0.1634595970E-01
       10    18      0.57285112E+02      0.2864215411E-01
       10    19      0.80994979E+02      0.4401594004E-02
       10    20      0.80994979E+02      0.4401594004E-02
       10    21      0.87502015E+02      0.2783669169E+00
       10    22      0.88536831E+02      0.1420253735E-02
       10    23      0.90986947E+02      0.7714082202E+00
       10    24      0.12592057E+03      0.3423678167E-02
       11     1      0.16576393E+01      0.3907364677E-03
       11     2      0.16576393E+01      0.3907364677E-03
       11     3      0.31896866E+01      0.6022631461E-03
       11     4      0.35725996E+01     -0.4772518133E-01
       11     5      0.15092378E+02      0.9949019137E-01
       11     6      0.29502484E+02      0.4168741579E-02
       11     7      0.29502484E+02      0.4168741579E-02
       11     8      0.30817713E+02      0.1051821174E-01
       11     9      0.30817713E+02      0.1051821174E-01
       11    10      0.34158643E+02      0.1371433925E+00
       11    11      0.37319486E+02      0.2637919283E-01
       11    12      0.37319486E+02      0.2637919283E-01
       11    13      0.40068479E+02      0.2915738698E+00
       11    14      0.40209072E+02      0.1626934570E-01
       11    15      0.40209072E+02      0.1626934570E-01
       11    16      0.48389457E+02      0.1749705053E-01
       11    17      0.48389457E+02      0.1749705053E-01
       11    18      0.57283530E+02      0.2766776998E-01
       11    19      0.80984722E+02      0.4416701103E-02
       11    20      0.80984722E+02      0.4416701103E-02
       11    21      0.87516120E+02      0.3015829545E+00
       11    22      0.88521593E+02      0.1456069629E-02
       11    23      0.91269573E+02      0.8529872470E+00
       11    24      0.12593854E+03      0.3801840958E-02
       12     1      0.18186430E+01      0.4277852737E-03
       12     2      0.18186430E+01      0.4277852737E-03
       12     3      0.31957244E+01      0.2170560979E-04
       12     4      0.39301730E+01     -0.5927047783E-01
       12     5      0.15233884E+02      0.1080851213E+00
       12     6      0.29497017E+02      0.4757066177E-02
       12     7      0.29497017E+02      0.4757066177E-02
       12     8      0.30744109E+02      0.9927989615E-02
       12     9      0.30744109E+02      0.9927989615E-02
       12    10      0.34163940E+02      0.1443851730E+00
       12    11      0.37318914E+02      0.3005835062E-01
       12    12      0.37318914E+02      0.3005835062E-01
       12    13      0.40177192E+02      0.3411221181E+00
       12    14      0.40194753E+02      0.1803541501E-01
       12    15      0.40194753E+02      0.1803541501E-01
       12    16      0.48433867E+02      0.1818472653E-01
       12    17      0.48433867E+02      0.1818472653E-01
       12    18      0.57281785E+02      0.2747118859E-01
       12    19      0.80973430E+02      0.4850580773E-02
       12    20      0.80973430E+02      0.4850580773E-02
       12    21      0.87540957E+02      0.3280859306E+00
       12    22      0.88504793E+02      0.1634263372E-02
       12    23      0.91570084E+02      0.9316385615E+00
       12    24      0.12595843E+03      0.3795694019E-02
       13     1      0.19783023E+01      0.5107169832E-03
       13     2      0.19783023E+01      0.5107169832E-03
       13     3      0.32022672E+01      0.4794661942E-03
       13     4      0.42876233E+01     -0.7257075781E-01
       13     5      0.15386210E+02      0.1107935485E+00
       13     6      0.29486507E+02      0.5638028519E-02
       13     7      0.29486507E+02      0.5638028519E-02
       13     8      0.30668566E+02      0.1064087982E-01
       13     9      0.30668566E+02      0.1064087982E-01
       13    10      0.34169719E+02      0.1710722913E+00
       13    11      0.37318199E+02      0.3433291072E-01
       13    12      0.37318199E+02      0.3433291072E-01
       13    13      0.40179629E+02      0.2078486148E-01
       13    14      0.40179629E+02      0.2078486148E-01
       13    15      0.40294384E+02      0.3735902047E+00
       13    16      0.48481806E+02      0.1750240397E-01
       13    17      0.48481806E+02      0.1750240397E-01
       13    18      0.57279878E+02      0.2886455759E-01
       13    19      0.80961113E+02      0.4829486054E-02
       13    20      0.80961113E+02      0.4829486054E-02
       13    21      0.87576883E+02      0.3582152974E+00
       13    22      0.88486442E+02      0.1959985576E-02
       13    23      0.91887365E+02      0.9847703853E+00
       13    24      0.12598025E+03      0.4038750223E-02
       14     1      0.21365023E+01      0.5755262735E-03
       14     2      0.21365023E+01      0.5755262735E-03
       14     3      0.32092968E+01      0.1218219530E-02
       14     4      0.46448598E+01     -0.7138068326E-01
       14     5      0.15548786E+02      0.1304252309E+00
       14     6      0.29468811E+02      0.6380536636E-02
       14     7      0.29468811E+02      0.6380536636E-02
       14     8      0.30593367E+02      0.1109801701E-01
       14     9      0.30593367E+02      0.1109801701E-01
       14    10      0.34175974E+02      0.1813594391E+00
       14    11      0.37317322E+02      0.3278346764E-01
       14    12      0.37317322E+02      0.3278346764E-01
       14    13      0.40163829E+02      0.2080937035E-01
       14    14      0.40163829E+02      0.2080937035E-01
       14    15      0.40419583E+02      0.4523936985E+00
       14    16      0.48533110E+02      0.1805350935E-01
       14    17      0.48533110E+02      0.1805350935E-01
       14    18      0.57277812E+02      0.2816016544E-01
       14    19      0.80947788E+02      0.4877599693E-02
       14    20      0.80947788E+02      0.4877599693E-02
       14    21      0.87624059E+02      0.3294644040E+00
       14    22      0.88466553E+02      0.2036056842E-02
       14    23      0.92220435E+02      0.9670567085E+00
       14    24      0.12600401E+03      0.4989546598E-02
       15     1      0.22931299E+01      0.8653101931E-03
       15     2      0.22931299E+01      0.8653101931E-03
       15     3      0.32167942E+01      0.5258639124E-03
       15     4      0.50017801E+01     -0.6248586813E-01
       15     5      0.15721045E+02      0.1596156474E+00
       15     6      0.29441235E+02      0.6567730176E-02
       15     7      0.29441235E+02      0.6567730176E-02
       15     8      0.30521356E+02      0.1015209379E-01
       15     9      0.30521356E+02      0.1015209379E-01
       15    10      0.34182700E+02      0.1902577314E+00
       15    11      0.37316262E+02      0.2662699767E-01
       15    12      0.37316262E+02      0.2662699767E-01
       15    13      0.40147479E+02      0.1728636243E-01
       15    14      0.40147479E+02      0.1728636243E-01
       15    15      0.40552293E+02      0.4789881703E+00
       15    16      0.48587611E+02      0.1744216428E-01
       15    17      0.48587611E+02      0.1744216428E-01
       15    18      0.57275587E+02      0.3032458700E-01
       15    19      0.80933468E+02      0.5254127528E-02
       15    20      0.80933468E+02      0.5254127528E-02
       15    21      0.87682500E+02      0.3573360036E+00
       15    22      0.88445142E+02      0.2167832226E-02
       15    23      0.92568406E+02      0.1049106207E+01
       15    24      0.12602971E+03      0.5345808794E-02
       16     1      0.24480745E+01      0.1272576008E-02
       16     2      0.24480745E+01      0.1272576008E-02
       16     3      0.32247388E+01      0.1293815835E-02
       16     4      0.53582710E+01     -0.5283890529E-01
       16     5      0.15902429E+02      0.1794324620E+00
       16     6      0.29400674E+02      0.6897336946E-02
       16     7      0.29400674E+02      0.6897336946E-02
       16     8      0.30455796E+02      0.9895182999E-02
       16     9      0.30455796E+02      0.9895182999E-02
       16    10      0.34189890E+02      0.1908976193E+00
       16    11      0.37315000E+02      0.2323467794E-01
       16    12      0.37315000E+02      0.2323467794E-01
       16    13      0.40130706E+02      0.1488714297E-01
       16    14      0.40130706E+02      0.1488714297E-01
       16    15      0.40692000E+02      0.5010459724E+00
       16    16      0.48645138E+02      0.1634960239E-01
       16    17      0.48645138E+02      0.1634960239E-01
       16    18      0.57273205E+02      0.2905399281E-01
       16    19      0.80918170E+02      0.5609069926E-02
       16    20      0.80918170E+02      0.5609069926E-02
       16    21      0.87752100E+02      0.3944430955E+00
       16    22      0.88422225E+02      0.2518845393E-02
       16    23      0.92930455E+02      0.1161914874E+01
       16    24      0.12605737E+03      0.5437430121E-02
       17     1      0.26012278E+01      0.1478246810E-02
       17     2      0.26012278E+01      0.1478246810E-02
       17     3      0.32331095E+01      0.1240994352E-02
       17     4      0.57142102E+01     -0.3283518298E-01
       17     5      0.16092392E+02      0.1916701228E+00
       17     6      0.29344034E+02      0.6129330789E-02
       17     7      0.29344034E+02      0.6129330789E-02
       17     8      0.30399944E+02      0.7769789243E-02
       17     9      0.30399944E+02      0.7769789243E-02
       17    10      0.34197535E+02      0.1533836849E+00
       17    11      0.37313516E+02      0.2272763593E-01
       17    12      0.37313516E+02      0.2272763593E-01
       17    13      0.40113638E+02      0.1486664029E-01
       17    14      0.40113638E+02      0.1486664029E-01
       17    15      0.40838171E+02      0.4954179381E+00
       17    16      0.48705519E+02      0.1401316554E-01
       17    17      0.48705519E+02      0.1401316554E-01
       17    18      0.57270668E+02      0.2668150341E-01
       17    19      0.80901910E+02      0.5393800623E-02
       17    20      0.80901910E+02      0.5393800623E-02
       17    21      0.87832660E+02      0.4543069649E+00
       17    22      0.88397817E+02      0.3215603172E-02
       17    23      0.93305804E+02      0.1356594355E+01
       17    24      0.12608698E+03      0.6519946777E-02
       18     1      0.27524841E+01      0.1662828114E-02
       18     2      0.27524841E+01      0.1662828114E-02
       18     3      0.32418842E+01      0.1557928088E-02
       18     4      0.60694686E+01     -0.7076597393E-02
       18     5      0.16290405E+02      0.2240380766E+00
       18     6      0.29268902E+02      0.6963929297E-02
       18     7      0.29268902E+02      0.6963929297E-02
       18     8      0.30356386E+02      0.7114909805E-02
       18     9      0.30356386E+02      0.7114909805E-02
       18    10      0.34205629E+02      0.1635929859E+00
       18    11      0.37311791E+02      0.2452924271E-01
       18    12      0.37311791E+02      0.2452924271E-01
       18    13      0.40096398E+02      0.1686103727E-01
       18    14      0.40096398E+02      0.1686103727E-01
       18    15      0.40990261E+02      0.5213894871E+00
       18    16      0.48768580E+02      0.1260391566E-01
       18    17      0.48768580E+02      0.1260391566E-01
       18    18      0.57267978E+02      0.2723865055E-01
       18    19      0.80884707E+02      0.5495307477E-02
       18    20      0.80884707E+02      0.5495307477E-02
       18    21      0.87923903E+02      0.4676066756E+00
       18    22      0.88371938E+02      0.3555248408E-02
       18    23      0.93693706E+02      0.1480622959E+01
       18    24      0.12611855E+03      0.8197098928E-02
       19     1      0.29017406E+01      0.1800545487E-02
       19     2      0.29017406E+01      0.1800545487E-02
       19     3      0.32510399E+01      0.5886337617E-03
       19     4      0.64239112E+01     -0.1209620622E-01
       19     5      0.16495959E+02      0.2168883485E+00
       19     6      0.29174150E+02      0.7495620157E-02
       19     7      0.29174150E+02      0.7495620157E-02
       19     8      0.30326426E+02      0.6861154463E-02
       19     9      0.30326426E+02      0.6861154463E-02
       19    10      0.34214164E+02      0.1604206706E+00
       19    11      0.37309807E+02      0.1873571435E-01
       19    12      0.37309807E+02      0.1873571435E-01
       19    13      0.40079106E+02      0.1275185982E-01
       19    14      0.40079106E+02      0.1275185982E-01
       19    15      0.41147716E+02      0.5889918294E+00
       19    16      0.48834151E+02      0.1151449376E-01
       19    17      0.48834151E+02      0.1151449376E-01
       19    18      0.57265136E+02      0.2611143131E-01
       19    19      0.80866581E+02      0.5672451143E-02
       19    20      0.80866581E+02      0.5672451143E-02
       19    21      0.88025492E+02      0.4691893499E+00
       19    22      0.88344607E+02      0.3943002063E-02
       19    23      0.94093431E+02      0.1501178668E+01
       19    24      0.12615210E+03      0.9068272031E-02
       20     1      0.30488976E+01      0.2045132818E-02
       20     2      0.30488976E+01      0.2045132818E-02
       20     3      0.32605532E+01     -0.2322299872E-03
       20     4      0.67773992E+01     -0.7878243886E-02
       20     5      0.16708566E+02      0.2067523282E+00
       20     6      0.29060076E+02      0.7476901692E-02
       20     7      0.29060076E+02      0.7476901692E-02
       20     8      0.30309944E+02      0.6953895279E-02
       20     9      0.30309944E+02      0.6953895279E-02
       20    10      0.34223129E+02      0.1542246801E+00
       20    11      0.37307545E+02      0.2370328070E-01
       20    12      0.37307545E+02      0.2370328070E-01
       20    13      0.40061881E+02      0.1604719435E-01
       20    14      0.40061881E+02      0.1604719435E-01
       20    15      0.41309976E+02      0.5317881646E+00
       20    16      0.48902063E+02      0.1194141597E-01
       20    17      0.48902063E+02      0.1194141597E-01
       20    18      0.57262146E+02      0.2858520753E-01
       20    19      0.80847550E+02      0.5539704182E-02
       20    20      0.80847550E+02      0.5539704182E-02
       20    21      0.88137041E+02      0.5005887664E+00
       20    22      0.88315845E+02      0.4630977368E-02
       20    23      0.94504265E+02      0.1624870195E+01
       20    24      0.12618761E+03      0.9544955213E-02
       21     1      0.31938585E+01      0.2440864230E-02
       21     2      0.31938585E+01      0.2440864230E-02
       21     3      0.32703998E+01     -0.2877270349E-04
       21     4      0.71297918E+01     -0.7300955724E-03
       21     5      0.16927758E+02      0.2113310210E+00
       21     6      0.28928033E+02      0.7716647768E-02
       21     7      0.28928033E+02      0.7716647768E-02
       21     8      0.30305771E+02      0.6173046907E-02
       21     9      0.30305771E+02      0.6173046907E-02
       21    10      0.34232517E+02      0.1552567471E+00
       21    11      0.37304989E+02      0.2385711658E-01
       21    12      0.37304989E+02      0.2385711658E-01
       21    13      0.40044834E+02      0.1688932959E-01
       21    14      0.40044834E+02      0.1688932959E-01
       21    15      0.41476481E+02      0.5323714896E+00
       21    16      0.48972148E+02      0.1123671214E-01
       21    17      0.48972148E+02      0.1123671214E-01
       21    18      0.57259008E+02      0.3068040101E-01
       21    19      0.80827636E+02      0.5934410653E-02
       21    20      0.80827636E+02      0.5934410653E-02
       21    21      0.88258119E+02      0.4821935126E+00
       21    22      0.88285673E+02      0.4578542001E-02
       21    23      0.94925498E+02      0.1615937626E+01
       21    24      0.12622510E+03      0.9198638484E-02
       22     1      0.32805551E+01      0.7437824780E-03
       22     2      0.33365304E+01      0.2643767730E-02
       22     3      0.33365304E+01      0.2643767730E-02
       22     4      0.74809474E+01     -0.1384253927E-01
       22     5      0.17153093E+02      0.1943685515E+00
       22     6      0.28779848E+02      0.8570911375E-02
       22     7      0.28779848E+02      0.8570911375E-02
       22     8      0.30312268E+02      0.6115944492E-02
       22     9      0.30312268E+02      0.6115944492E-02
       22    10      0.34242318E+02      0.1631235045E+00
       22    11      0.37302124E+02      0.1805993316E-01