&CONTROL
    calculation   = 'scf'
    restart_mode  = 'from_scratch'
    prefix        = 'Landau_3'
    pseudo_dir    = '/cluster/scratch/mnoe/QE/pps'
    outdir        = './'
/
&SYSTEM
    ibrav       = 0
    nat         = 32
    ntyp        = 2
    ecutwfc     = 120
    occupations = 'smearing'
    degauss     = 7.35d-4
    tot_charge  = -0.6
/
&ELECTRONS
    conv_thr    = 1.0d-8
    diagonalization = 'david'
/

CELL_PARAMETERS angstrom
   7.333552374   0.000000000   0.000000000
   0.000000000   7.738469004   0.000000000
   0.000000000   0.000000000   7.334859934

ATOMIC_SPECIES
W 183.84 W_ONCV_LDA-4.0.upf
O 15.9994 O_ONCV_LDA-3.0.upf

ATOMIC_POSITIONS crystal
W 0.247229993	0.2812634922747858	0.00262	
W 0.7527699868291546	0.7187365077252142	0.997380027	
W 0.252770007	0.21873652292339205	0.502619973	
W 0.7472300068291546	0.7812634674182987	0.497379995	
W 0.7527699868291546	0.2812634922747858	0.497379995	
W 0.247229993	0.7187365077252142	0.502619973	
W 0.7472300068291546	0.21873652292339205	0.997380027	
W 0.252770007	0.7812634674182987	0.00262	
O 0.244880007	0.008157492788067574	0.00082	
O 0.7551200058291546	0.991842526050198	0.999180046	
O 0.255119976	0.4918425011937108	0.500819987	
O 0.7448799878291547	0.508157473949802	0.499179981	
O 0.7551200058291546	0.008157492788067574	0.499179981	
O 0.244880007	0.991842526050198	0.500819987	
O 0.7448799878291547	0.4918425011937108	0.999180046	
O 0.255119976	0.508157473949802	0.00082	
O 0.500760019	0.244749996	0.45099859009099885	
O 0.499239981	0.7552499919726675	0.5490013834488697	
O 0.999239949	0.255250004	0.9509986230909988	
O 0.000760078	0.7447500449726675	0.04900142036002177	
O 0.499239981	0.244749996	0.04900142036002177	
O 0.500760019	0.7552499919726675	0.9509986230909988	
O 0.000760078	0.255250004	0.5490013834488697	
O 0.999239949	0.7447500449726675	0.45099859009099885	
O 0.7009986197219756	0.248850006	0.7488499908291546	
O 0.2990014067381558	0.7511500279726676	0.251150006	
O 0.7990013866197151	0.251150009	0.248849994	
O 0.20099860609099884	0.7488500089726675	0.7511500028291547	
O 0.2990014067381558	0.248850006	0.7511500028291547	
O 0.7009986197219756	0.7511500279726676	0.248849994	
O 0.20099860609099884	0.251150009	0.251150006	
O 0.7990013866197151	0.7488500089726675	0.7488499908291546	

K_POINTS automatic
6 6 6 0 0 0
