
&CONTROL
    calculation   = 'vc-relax'
    restart_mode  = 'from_scratch'
    prefix        = 'Landau_25'
    pseudo_dir    = '/cluster/scratch/mnoe/QE/pps'
    outdir        = './'
    forc_conv_thr = 1.0d-7
    etot_conv_thr = 1.0d-7

/
&SYSTEM
    ibrav       = 0
    nat         = 32
    ntyp        = 2
    ecutwfc     = 120
    occupations = 'smearing'
    degauss     = 7.35d-4
    tot_charge  = -0.0
/
&ELECTRONS
    conv_thr    = 1.0d-8
    diagonalization = 'david'
/


&IONS
ion_dynamics = 'bfgs'
/

&CELL
cell_dynamics = 'bfgs'
cell_dofree = 'all'
/
CELL_PARAMETERS angstrom
        7.3236460686         0.0000000000         0.0000000000
        0.0000000000         7.7495899200         0.0000000000
        0.0000000000         0.0000000000         7.3236460686

ATOMIC_SPECIES
W 183.84 W_ONCV_LDA-4.0.upf
O 15.9994 O_ONCV_LDA-3.0.upf

ATOMIC_POSITIONS crystal
W 0.238440001	0.2862808141598263	0.01092	 0 0 0
W 0.761559966	0.7137191858401737	0.989080018	 0 0 0
W 0.261559999	0.21371919498220218	0.510919982	 0 0 0
W 0.738440034	0.7862807831598263	0.489080018	 0 0 0
W 0.761559966	0.2862808141598263	0.489080018	 0 0 0
W 0.238440001	0.7137191858401737	0.510919982	 0 0 0
W 0.738440034	0.21371919498220218	0.989080018	 0 0 0
W 0.261559999	0.7862807831598263	0.01092	 0 0 0
O 0.228669993	0.01668518373202254	0.0034	 0 0 0
O 0.771330007	0.9833148498123262	0.996599987	 0 0 0
O 0.271330007	0.48331480670585175	0.503400013	 0 0 0
O 0.728669993	0.5166851744006228	0.496599987	 0 0 0
O 0.771330007	0.01668518373202254	0.496599987	 0 0 0
O 0.228669993	0.9833148498123262	0.503400013	 0 0 0
O 0.728669993	0.48331480670585175	0.996599987	 0 0 0
O 0.271330007	0.5166851744006228	0.0034	 0 0 0
O 0.503160011	0.228119995	0.472390013893463	 0 0 0
O 0.496839989	0.771880036	0.5276099784910803	 0 0 0
O 0.996839989	0.271880005	0.9723900281479542	 0 0 0
O 0.00316	0.728119995	0.027610019289920122	 0 0 0
O 0.496839989	0.228119995	0.027610019289920122	 0 0 0
O 0.503160011	0.771880036	0.9723900281479542	 0 0 0
O 0.00316	0.271880005	0.5276099784910803	 0 0 0
O 0.996839989	0.728119995	0.472390013893463	 0 0 0
O 0.7223900597810003	0.245220011	0.745209978	 0 0 0
O 0.2776100048520459	0.754780004	0.254790006	 0 0 0
O 0.7776099656035429	0.254779989	0.245209929	 0 0 0
O 0.22239003028399446	0.745220027	0.754790022	 0 0 0
O 0.2776100048520459	0.245220011	0.754790022	 0 0 0
O 0.7223900597810003	0.754780004	0.245209929	 0 0 0
O 0.22239003028399446	0.254779989	0.254790006	 0 0 0
O 0.7776099656035429	0.745220027	0.745209978	 0 0 0

K_POINTS automatic
6 6 6 0 0 0
