
&CONTROL
    calculation   = 'vc-relax'
    restart_mode  = 'from_scratch'
    prefix        = 'Landau_25'
    pseudo_dir    = '/cluster/scratch/mnoe/QE/pps'
    outdir        = './'
    forc_conv_thr = 1.0d-7
    etot_conv_thr = 1.0d-7

/
&SYSTEM
    ibrav       = 0
    nat         = 32
    ntyp        = 2
    ecutwfc     = 120
    occupations = 'smearing'
    degauss     = 7.35d-4
    tot_charge  = -0.0
/
&ELECTRONS
    conv_thr    = 1.0d-8
    diagonalization = 'david'
/


&IONS
ion_dynamics = 'bfgs'
/

&CELL
cell_dynamics = 'bfgs'
cell_dofree = 'all'
/
CELL_PARAMETERS angstrom
        7.3236460686         0.0000000000         0.0000000000
        0.0000000000         7.7495899200         0.0000000000
        0.0000000000         0.0000000000         7.3236460686

ATOMIC_SPECIES
W 183.84 W_ONCV_LDA-4.0.upf
O 15.9994 O_ONCV_LDA-3.0.upf

ATOMIC_POSITIONS crystal
W 0.25	0.2719104477102177	0.0	 0 0 0
W 0.7499999471115943	0.7280895522897822	0.0	 0 0 0
W 0.25	0.22808957059530746	0.5	 0 0 0
W 0.7499999471115943	0.7719105191815038	0.5	 0 0 0
W 0.7499999471115943	0.2719104477102177	0.5	 0 0 0
W 0.25	0.7280895522897822	0.5	 0 0 0
W 0.7499999471115943	0.22808957059530746	0.0	 0 0 0
W 0.25	0.7719105191815038	0.0	 0 0 0
O 0.25	0.005609446070681484	0.0	 0 0 0
O 0.7499999471115943	0.9943905075132861	0.0	 0 0 0
O 0.25	0.4943905789845721	0.5	 0 0 0
O 0.7499999471115943	0.5056094924867139	0.5	 0 0 0
O 0.7499999471115943	0.005609446070681484	0.5	 0 0 0
O 0.25	0.9943905075132861	0.5	 0 0 0
O 0.7499999471115943	0.4943905789845721	0.0	 0 0 0
O 0.25	0.5056094924867139	0.0	 0 0 0
O 0.5	0.25	0.4738686243313255	 0 0 0
O 0.5	0.7500000345828803	0.5261314517510111	 0 0 0
O 0.0	0.25	0.9738686573313255	 0 0 0
O 0.0	0.7500000345828803	0.026131299113964522	 0 0 0
O 0.5	0.25	0.026131299113964522	 0 0 0
O 0.5	0.7500000345828803	0.9738686573313255	 0 0 0
O 0.0	0.25	0.5261314517510111	 0 0 0
O 0.0	0.7500000345828803	0.4738686243313255	 0 0 0
O 0.7238686011373946	0.25	0.7499999471115943	 0 0 0
O 0.27613132278026864	0.7500000345828803	0.25	 0 0 0
O 0.7761315046394167	0.25	0.25	 0 0 0
O 0.22386864033132553	0.7500000345828803	0.7499999471115943	 0 0 0
O 0.27613132278026864	0.25	0.7499999471115943	 0 0 0
O 0.7238686011373946	0.7500000345828803	0.25	 0 0 0
O 0.22386864033132553	0.25	0.25	 0 0 0
O 0.7761315046394167	0.7500000345828803	0.7499999471115943	 0 0 0

K_POINTS automatic
6 6 6 0 0 0
