
&CONTROL
    calculation   = 'vc-relax'
    restart_mode  = 'from_scratch'
    prefix        = 'Landau_17'
    pseudo_dir    = '/cluster/scratch/mnoe/QE/pps'
    outdir        = './'
    forc_conv_thr = 1.0d-7
    etot_conv_thr = 1.0d-7

/
&SYSTEM
    ibrav       = 0
    nat         = 32
    ntyp        = 2
    ecutwfc     = 120
    occupations = 'smearing'
    degauss     = 7.35d-4
    tot_charge  = -0.0
/
&ELECTRONS
    conv_thr    = 1.0d-8
    diagonalization = 'david'
/


&IONS
ion_dynamics = 'bfgs'
/

&CELL
cell_dynamics = 'bfgs'
cell_dofree = 'all'
/
CELL_PARAMETERS angstrom
        7.3236460686         0.0000000000         0.0000000000
        0.0000000000         7.7495899200         0.0000000000
        0.0000000000         0.0000000000         7.3236460686

ATOMIC_SPECIES
W 183.84 W_ONCV_LDA-4.0.upf
O 15.9994 O_ONCV_LDA-3.0.upf

ATOMIC_POSITIONS crystal
W 0.2243865340281015	0.2768500812490345	0.004378044800189785	 0 0 0
W 0.7558365116259154	0.7231499187509656	-0.02532093734981026	 0 0 0
W 0.2756134659718985	0.223149935415404	0.5043780436777618	 0 0 0
W 0.7441634481306301	0.7768501018466295	0.4746790249777619	 0 0 0
W 0.77561341923063	0.2768500812490345	0.4956219563222381	 0 0 0
W 0.24416346597189853	0.7231499187509656	0.5253209750222382	 0 0 0
W 0.7243865405259153	0.223149935415404	-0.004378025250189831	 0 0 0
W 0.25583653402810147	0.7768501018466295	0.02532095689981021	 0 0 0
O 0.21791596830672905	0.006955148738597026	-0.014702918725444507	 0 0 0
O 0.7759369221257123	-0.006955160691806545	-0.023933924675444473	 0 0 0
O 0.28208399941444035	0.4930448599057885	0.4852970404957248	 0 0 0
O 0.724063020650078	0.5069551606918066	0.4760660566457248	 0 0 0
O 0.782083959450078	0.006955148738597026	0.5147029405106779	 0 0 0
O 0.22406299091444032	-0.006955160691806545	0.5239339243606779	 0 0 0
O 0.7179159833257123	0.4930448599057885	0.014702912775444542	 0 0 0
O 0.2759369768067291	0.5069551606918066	0.02393391872544451	 0 0 0
O 0.5086424119408404	0.21591706967200172	0.4617902484198747	 0 0 0
O 0.5000403983408404	0.7754340991789576	0.5382097735065973	 0 0 0
O -0.008642403199204247	0.28408290482799825	0.9617902814198748	 0 0 0
O -4.040404920423353e-05	0.7245660062817345	0.03820972097584588	 0 0 0
O 0.49135758805915963	0.21591706967200172	0.03820972097584588	 0 0 0
O 0.4999596016591596	0.7754340991789576	0.9617902814198748	 0 0 0
O 0.00864236944084039	0.28408290482799825	0.5382097735065973	 0 0 0
O 4.037029084037833e-05	0.7245660062817345	0.4617902484198747	 0 0 0
O 0.7117902531244195	0.263322525406466	0.7463445958436652	 0 0 0
O 0.2882097249491084	0.776310596544177	0.2593835799958514	 0 0 0
O 0.7882098001376141	0.23667745761277884	0.24634465904585137	 0 0 0
O 0.21179026441987472	0.7236895092004898	0.7593835720436652	 0 0 0
O 0.2882097249491084	0.263322525406466	0.7536553978743904	 0 0 0
O 0.7117902531244195	0.776310596544177	0.24061647525414867	 0 0 0
O 0.21179026441987472	0.23667745761277884	0.2536553962041487	 0 0 0
O 0.7882098001376141	0.7236895092004898	0.7406164216743905	 0 0 0

K_POINTS automatic
6 6 6 0 0 0
