
&CONTROL
    calculation   = 'vc-relax'
    restart_mode  = 'from_scratch'
    prefix        = 'Landau_11'
    pseudo_dir    = '/cluster/scratch/mnoe/QE/pps'
    outdir        = './'
    forc_conv_thr = 1.0d-7
    etot_conv_thr = 1.0d-7

/
&SYSTEM
    ibrav       = 0
    nat         = 32
    ntyp        = 2
    ecutwfc     = 120
    occupations = 'smearing'
    degauss     = 7.35d-4
    tot_charge  = -0.0
/
&ELECTRONS
    conv_thr    = 1.0d-8
    diagonalization = 'david'
/


&IONS
ion_dynamics = 'bfgs'
/

&CELL
cell_dynamics = 'bfgs'
cell_dofree = 'all'
/
CELL_PARAMETERS angstrom
        7.3236460686         0.0000000000         0.0000000000
        0.0000000000         7.7495899200         0.0000000000
        0.0000000000         0.0000000000         7.3236460686

ATOMIC_SPECIES
W 183.84 W_ONCV_LDA-4.0.upf
O 15.9994 O_ONCV_LDA-3.0.upf

ATOMIC_POSITIONS crystal
W 0.244910008	0.2791361965844956	0.0048	 0 0 0
W 0.7550899775211842	0.7208638034155044	0.995199951	 0 0 0
W 0.255089992	0.22086381932043037	0.504800017	 0 0 0
W 0.7449099935211841	0.7791361936372013	0.495200016	 0 0 0
W 0.7550899775211842	0.2791361965844956	0.495200016	 0 0 0
W 0.244910008	0.7208638034155044	0.504800017	 0 0 0
W 0.7449099935211841	0.22086381932043037	0.995199951	 0 0 0
W 0.255089992	0.7791361936372013	0.0048	 0 0 0
O 0.240619996	0.007577954354017157	0.00149	 0 0 0
O 0.7593799405211842	0.9924220496425371	0.998509979	 0 0 0
O 0.259379988	0.49242204669524275	0.501489988	 0 0 0
O 0.7406200305211842	0.5075779503574629	0.498510012	 0 0 0
O 0.7593799405211842	0.007577954354017157	0.498510012	 0 0 0
O 0.240619996	0.9924220496425371	0.501489988	 0 0 0
O 0.7406200305211842	0.49242204669524275	0.998509979	 0 0 0
O 0.259379988	0.5075779503574629	0.00149	 0 0 0
O 0.501389976	0.240369998	0.45620024661475167	 0 0 0
O 0.498610024	0.7596299995738899	0.5437997502478059	 0 0 0
O 0.998609991	0.259629986	0.9562002796147516	 0 0 0
O 0.00138998	0.7403700585738899	0.04379974404732062	 0 0 0
O 0.498610024	0.240369998	0.04379974404732062	 0 0 0
O 0.501389976	0.7596299995738899	0.9562002796147516	 0 0 0
O 0.00138998	0.259629986	0.5437997502478059	 0 0 0
O 0.998609991	0.7403700585738899	0.45620024661475167	 0 0 0
O 0.7062002642310099	0.247899992	0.7478899695211841	 0 0 0
O 0.29379973890643246	0.7520999755738899	0.25211	 0 0 0
O 0.7937997647266217	0.252099992	0.24789	 0 0 0
O 0.20620026261475166	0.7479000215738899	0.7521100015211842	 0 0 0
O 0.29379973890643246	0.247899992	0.7521100015211842	 0 0 0
O 0.7062002642310099	0.7520999755738899	0.24789	 0 0 0
O 0.20620026261475166	0.252099992	0.25211	 0 0 0
O 0.7937997647266217	0.7479000215738899	0.7478899695211841	 0 0 0

K_POINTS automatic
6 6 6 0 0 0
