
&CONTROL
    calculation   = 'vc-relax'
    restart_mode  = 'from_scratch'
    prefix        = 'Landau_31'
    pseudo_dir    = '/cluster/scratch/mnoe/QE/pps'
    outdir        = './'
    forc_conv_thr = 1.0d-7
    etot_conv_thr = 1.0d-7

/
&SYSTEM
    ibrav       = 0
    nat         = 32
    ntyp        = 2
    ecutwfc     = 120
    occupations = 'smearing'
    degauss     = 7.35d-4
    tot_charge  = -0.0
/
&ELECTRONS
    conv_thr    = 1.0d-8
    diagonalization = 'david'
/


&IONS
ion_dynamics = 'bfgs'
/

&CELL
cell_dynamics = 'bfgs'
cell_dofree = 'all'
/
CELL_PARAMETERS angstrom
        7.3236460686         0.0000000000         0.0000000000
        0.0000000000         7.7495899200         0.0000000000
        0.0000000000         0.0000000000         7.3236460686

ATOMIC_SPECIES
W 183.84 W_ONCV_LDA-4.0.upf
O 15.9994 O_ONCV_LDA-3.0.upf

ATOMIC_POSITIONS crystal
0.27787998699999994	0.281860003	0.25079998400000003	 0 0 0
-0.2507999649999999	0.718139997	-0.722119997	 0 0 0
0.222119997	0.218140012	0.7507999649999999	 0 0 0
0.750799984	0.781859972	0.777879971	 0 0 0
0.722120016	0.281860003	0.7491999869999999	 0 0 0
0.250799981	0.718139997	0.722119981	 0 0 0
-0.22211999699999985	0.218140012	-0.750799965	 0 0 0
0.24920000299999995	0.781859972	0.22212001599999998	 0 0 0
0.280660005	0.00832	0.27223995100000004	 0 0 0
-0.272239946	0.991680023	-0.7193400440000001	 0 0 0
0.21934001199999997	0.491679992	0.772239978	 0 0 0
0.772239951	0.508319977	0.780659988	 0 0 0
0.719340049	0.00832	0.727760005	 0 0 0
0.27223999499999996	0.991680023	0.719339995	 0 0 0
-0.21934004399999996	0.491679992	-0.7722399460000001	 0 0 0
0.227760022	0.508319977	0.21934004899999998	 0 0 0
0.4901399430000001	0.283049993	0.6995400039999999	 0 0 0
0.49798000100000006	0.72878996	0.800459963	 0 0 0
-0.99014004	0.21694999199999998	1.199540037	 0 0 0
0.002019884999999993	0.771209949	0.300460012	 0 0 0
0.509860057	0.283049993	0.300460012	 0 0 0
0.502019999	0.72878996	1.199540037	 0 0 0
-0.00986008999999994	0.21694999199999998	0.800459963	 0 0 0
-1.0020200149999998	0.771209949	0.6995400039999999	 0 0 0
0.6995400369999999	0.22878999	2.002020031	 0 0 0
0.300459996	0.716949961	0.49013995900000007	 0 0 0
0.800459963	0.271209995	0.502019934	 0 0 0
0.19954001999999996	0.7830499479999999	1.990139975	 0 0 0
0.300459996	0.22878999	0.9979800500000001	 0 0 0
0.699540037	0.716949961	0.509859992	 0 0 0
0.19954002	0.271209995	0.49798001700000005	 0 0 0
0.800459963	0.7830499479999999	1.0098601059999999	 0 0 0

K_POINTS automatic
6 6 6 0 0 0
