
&CONTROL
    calculation   = 'vc-relax'
    restart_mode  = 'from_scratch'
    prefix        = 'Landau_28'
    pseudo_dir    = '/cluster/scratch/mnoe/QE/pps'
    outdir        = './'
    forc_conv_thr = 1.0d-7
    etot_conv_thr = 1.0d-7

/
&SYSTEM
    ibrav       = 0
    nat         = 32
    ntyp        = 2
    ecutwfc     = 120
    occupations = 'smearing'
    degauss     = 7.35d-4
    tot_charge  = -0.0
/
&ELECTRONS
    conv_thr    = 1.0d-8
    diagonalization = 'david'
/


&IONS
ion_dynamics = 'bfgs'
/

&CELL
cell_dynamics = 'bfgs'
cell_dofree = 'all'
/
CELL_PARAMETERS angstrom
        7.3236460686         0.0000000000         0.0000000000
        0.0000000000         7.7495899200         0.0000000000
        0.0000000000         0.0000000000         7.3236460686

ATOMIC_SPECIES
W 183.84 W_ONCV_LDA-4.0.upf
O 15.9994 O_ONCV_LDA-3.0.upf

ATOMIC_POSITIONS crystal
W 0.25	0.2779568978050835	0.0	 0 0 0
W 0.7499999792524384	0.7220431021949165	0.0	 0 0 0
W 0.25	0.22204311849163907	0.5	 0 0 0
W 0.7499999792524384	0.777956907003484	0.5	 0 0 0
W 0.7499999792524384	0.2779568978050835	0.5	 0 0 0
W 0.25	0.7220431021949165	0.5	 0 0 0
W 0.7499999792524384	0.22204311849163907	0.0	 0 0 0
W 0.25	0.777956907003484	0.0	 0 0 0
O 0.25	0.007256678392702708	0.0	 0 0 0
O 0.7499999792524384	0.9927433173761228	0.0	 0 0 0
O 0.25	0.4927433265745233	0.5	 0 0 0
O 0.7499999792524384	0.5072566826238772	0.5	 0 0 0
O 0.7499999792524384	0.007256678392702708	0.5	 0 0 0
O 0.25	0.9927433173761228	0.5	 0 0 0
O 0.7499999792524384	0.4927433265745233	0.0	 0 0 0
O 0.25	0.5072566826238772	0.0	 0 0 0
O 0.5	0.25	0.45908386416607855	 0 0 0
O 0.5	0.7500000044508389	0.5409161456257672	 0 0 0
O 0.0	0.25	0.9590838971660786	 0 0 0
O 0.0	0.7500000044508389	0.04091611552568871	 0 0 0
O 0.5	0.25	0.04091611552568871	 0 0 0
O 0.5	0.7500000044508389	0.9590838971660786	 0 0 0
O 0.0	0.25	0.5409161456257672	 0 0 0
O 0.0	0.7500000044508389	0.45908386416607855	 0 0 0
O 0.7090838751217944	0.25	0.7499999792524384	 0 0 0
O 0.29091611508635984	0.7500000044508389	0.25	 0 0 0
O 0.7909161663733287	0.25	0.25	 0 0 0
O 0.20908388016607854	0.7500000044508389	0.7499999792524384	 0 0 0
O 0.29091611508635984	0.25	0.7499999792524384	 0 0 0
O 0.7090838751217944	0.7500000044508389	0.25	 0 0 0
O 0.20908388016607854	0.25	0.25	 0 0 0
O 0.7909161663733287	0.7500000044508389	0.7499999792524384	 0 0 0

K_POINTS automatic
6 6 6 0 0 0
