
&CONTROL
    calculation   = 'vc-relax'
    restart_mode  = 'from_scratch'
    prefix        = 'Landau_2'
    pseudo_dir    = '/cluster/scratch/mnoe/QE/pps'
    outdir        = './'
    forc_conv_thr = 1.0d-7
    etot_conv_thr = 1.0d-7

/
&SYSTEM
    ibrav       = 0
    nat         = 32
    ntyp        = 2
    ecutwfc     = 120
    occupations = 'smearing'
    degauss     = 7.35d-4
    tot_charge  = -0.0
/
&ELECTRONS
    conv_thr    = 1.0d-8
    diagonalization = 'david'
/


&IONS
ion_dynamics = 'bfgs'
/

&CELL
cell_dynamics = 'bfgs'
cell_dofree = 'all'
/
CELL_PARAMETERS angstrom
        7.3236460686         0.0000000000         0.0000000000
        0.0000000000         7.7495899200         0.0000000000
        0.0000000000         0.0000000000         7.3236460686

ATOMIC_SPECIES
W 183.84 W_ONCV_LDA-4.0.upf
O 15.9994 O_ONCV_LDA-3.0.upf

ATOMIC_POSITIONS crystal
W 0.250869983	0.2807692776411678	-0.999090002	 0 0 0
W 0.7490899960956553	0.7192307223588321	-0.999129984	 0 0 0
W 0.24913	0.2192307377278537	-0.499090002	 0 0 0
W 0.7509099590956553	0.7807692890808356	-0.49912999999999996	 0 0 0
W 0.7491299780956553	0.2807692776411678	-0.500909982	 0 0 0
W 0.250909982	0.7192307223588321	-0.5008699830000001	 0 0 0
W 0.7508699770956553	0.2192307377278537	-1.000909965	 0 0 0
W 0.249090002	0.7807692890808356	-1.0008699829999999	 0 0 0
O 0.251850015	0.008027386751072226	-0.998159997	 0 0 0
O 0.7481599910956553	0.9919726184994754	-0.998149969	 0 0 0
O 0.248150001	0.4919726299391432	-0.498159997	 0 0 0
O 0.7518399650956553	0.5080273815005246	-0.498150001	 0 0 0
O 0.7481499630956553	0.008027386751072226	-0.501840003	 0 0 0
O 0.251840003	0.9919726184994754	-0.501850015	 0 0 0
O 0.7518499930956554	0.4919726299391432	-1.0018399709999999	 0 0 0
O 0.248159997	0.5080273815005246	-1.001849999	 0 0 0
O 0.499609947	0.252210015	-0.5478739826051814	 0 0 0
O 0.500249985	0.7484400275353232	-0.45212598921710756	 0 0 0
O 0.000389993	0.24779	-1.0478739826051815	 0 0 0
O 0.999750015	0.7515599835353232	-0.9521259957274217	 0 0 0
O 0.500389988	0.252210015	-0.9521259957274217	 0 0 0
O 0.499749982	0.7484400275353232	-1.0478739826051815	 0 0 0
O 0.999610012	0.24779	-0.45212598921710756	 0 0 0
O 0.000250012	0.7515599835353232	-0.5478739826051814	 0 0 0
O 0.7021259791214522	0.248439991	-0.2502500179043447	 0 0 0
O 0.29787397670083676	0.7477899595353232	-0.750389988	 0 0 0
O 0.7978740006872371	0.251560009	-0.750249985	 0 0 0
O 0.20212600139481848	0.7522100515353232	-0.25038999890434466	 0 0 0
O 0.29787397670083676	0.248439991	-1.2497500209043448	 0 0 0
O 0.7021259791214522	0.7477899595353232	-0.7496099469999999	 0 0 0
O 0.20212600139481848	0.251560009	-0.749749982	 0 0 0
O 0.7978740006872371	0.7522100515353232	-1.2496100179043448	 0 0 0

K_POINTS automatic
6 6 6 0 0 0
