
&CONTROL
    calculation   = 'vc-relax'
    restart_mode  = 'from_scratch'
    prefix        = 'Landau_16'
    pseudo_dir    = '/cluster/scratch/mnoe/QE/pps'
    outdir        = './'
    forc_conv_thr = 1.0d-7
    etot_conv_thr = 1.0d-7

/
&SYSTEM
    ibrav       = 0
    nat         = 32
    ntyp        = 2
    ecutwfc     = 120
    occupations = 'smearing'
    degauss     = 7.35d-4
    tot_charge  = -0.0
/
&ELECTRONS
    conv_thr    = 1.0d-8
    diagonalization = 'david'
/


&IONS
ion_dynamics = 'bfgs'
/

&CELL
cell_dynamics = 'bfgs'
cell_dofree = 'all'
/
CELL_PARAMETERS angstrom
        7.3236460686         0.0000000000         0.0000000000
        0.0000000000         7.7495899200         0.0000000000
        0.0000000000         0.0000000000         7.3236460686

ATOMIC_SPECIES
W 183.84 W_ONCV_LDA-4.0.upf
O 15.9994 O_ONCV_LDA-3.0.upf

ATOMIC_POSITIONS crystal
W 0.2426	0.27869048280741304	0.00699	 0 0 0
W 0.7574000151519233	0.721309517192587	0.993009977	 0 0 0
W 0.2574	0.2213095332455917	0.506990023	 0 0 0
W 0.7425999511519235	0.7786904844505614	0.49301001	 0 0 0
W 0.7574000151519233	0.27869048280741304	0.49301001	 0 0 0
W 0.2426	0.721309517192587	0.506990023	 0 0 0
W 0.7425999511519235	0.2213095332455917	0.993009977	 0 0 0
W 0.2574	0.7786904844505614	0.00699	 0 0 0
O 0.236350007	0.007456528702856329	0.00217	 0 0 0
O 0.7636499761519234	0.9925434721840432	0.997829951	 0 0 0
O 0.263649993	0.49254347382719155	0.502170017	 0 0 0
O 0.7363499901519234	0.5074565278159568	0.497830016	 0 0 0
O 0.7636499761519234	0.007456528702856329	0.497830016	 0 0 0
O 0.236350007	0.9925434721840432	0.502170017	 0 0 0
O 0.7363499901519234	0.49254347382719155	0.997829951	 0 0 0
O 0.263649993	0.5074565278159568	0.00217	 0 0 0
O 0.502019999	0.236	0.45729010449716556	 0 0 0
O 0.497980001	0.7640000317950718	0.5427098972519924	 0 0 0
O 0.997979968	0.263999985	0.9572901374971656	 0 0 0
O 0.002020001	0.7360000307950718	0.04270988201870035	 0 0 0
O 0.497980001	0.236	0.04270988201870035	 0 0 0
O 0.502019999	0.7640000317950718	0.9572901374971656	 0 0 0
O 0.002020001	0.263999985	0.5427098972519924	 0 0 0
O 0.997979968	0.7360000307950718	0.45729010449716556	 0 0 0
O 0.7072901195960842	0.246939995	0.7469299571519235	 0 0 0
O 0.2927098786547578	0.7530600057950718	0.253069993	 0 0 0
O 0.792709914100069	0.25305999	0.246930007	 0 0 0
O 0.20729012049716558	0.7469400567950718	0.7530700091519233	 0 0 0
O 0.2927098786547578	0.246939995	0.7530700091519233	 0 0 0
O 0.7072901195960842	0.7530600057950718	0.246930007	 0 0 0
O 0.20729012049716558	0.25305999	0.253069993	 0 0 0
O 0.792709914100069	0.7469400567950718	0.7469299571519235	 0 0 0

K_POINTS automatic
6 6 6 0 0 0
