
&CONTROL
    calculation   = 'vc-relax'
    restart_mode  = 'from_scratch'
    prefix        = 'Landau_26'
    pseudo_dir    = '/cluster/scratch/mnoe/QE/pps'
    outdir        = './'
    forc_conv_thr = 1.0d-7
    etot_conv_thr = 1.0d-7

/
&SYSTEM
    ibrav       = 0
    nat         = 32
    ntyp        = 2
    ecutwfc     = 120
    occupations = 'smearing'
    degauss     = 7.35d-4
    tot_charge  = -0.0
/
&ELECTRONS
    conv_thr    = 1.0d-8
    diagonalization = 'david'
/


&IONS
ion_dynamics = 'bfgs'
/

&CELL
cell_dynamics = 'bfgs'
cell_dofree = 'all'
/
CELL_PARAMETERS angstrom
        7.3236460686         0.0000000000         0.0000000000
        0.0000000000         7.7495899200         0.0000000000
        0.0000000000         0.0000000000         7.3236460686

ATOMIC_SPECIES
W 183.84 W_ONCV_LDA-4.0.upf
O 15.9994 O_ONCV_LDA-3.0.upf

ATOMIC_POSITIONS crystal
W 0.237979985	0.2767095326870462	0.01136	 0 0 0
W 0.7620199546218756	0.7232904673129538	0.988639992	 0 0 0
W 0.262019998	0.2232904840240865	0.511359975	 0 0 0
W 0.7379799906218756	0.7767095547321624	0.488640025	 0 0 0
W 0.7620199546218756	0.2767095326870462	0.488640025	 0 0 0
W 0.237979985	0.7232904673129538	0.511359975	 0 0 0
W 0.7379799906218756	0.2232904840240865	0.988639992	 0 0 0
W 0.262019998	0.7767095547321624	0.01136	 0 0 0
O 0.22781999	0.006916859142141535	0.00353	 0 0 0
O 0.7721800156218755	0.99308312792407	0.996469958	 0 0 0
O 0.272180026	0.4930831499691863	0.503530042	 0 0 0
O 0.7278199296218756	0.50691687207593	0.496469991	 0 0 0
O 0.7721800156218755	0.006916859142141535	0.496469991	 0 0 0
O 0.22781999	0.99308312792407	0.503530042	 0 0 0
O 0.7278199296218756	0.4930831499691863	0.996469958	 0 0 0
O 0.272180026	0.50691687207593	0.00353	 0 0 0
O 0.503290007	0.227239989	0.46213391730789405	 0 0 0
O 0.496709993	0.7727600366669918	0.5378661061594876	 0 0 0
O 0.996710026	0.272760011	0.9621339503078941	 0 0 0
O 0.003289938	0.7272399836669917	0.03786605078038808	 0 0 0
O 0.496709993	0.227239989	0.03786605078038808	 0 0 0
O 0.503290007	0.7727600366669918	0.9621339503078941	 0 0 0
O 0.003289938	0.272760011	0.5378661061594876	 0 0 0
O 0.996710026	0.7272399836669917	0.46213391730789405	 0 0 0
O 0.7121339212186368	0.245029999	0.7450099916218755	 0 0 0
O 0.2878660553139814	0.7549700416669918	0.254989981	 0 0 0
O 0.7878661335376121	0.254970016	0.245010019	 0 0 0
O 0.21213393330789407	0.7450300406669917	0.7549899536218756	 0 0 0
O 0.2878660553139814	0.245029999	0.7549899536218756	 0 0 0
O 0.7121339212186368	0.7549700416669918	0.245010019	 0 0 0
O 0.21213393330789407	0.254970016	0.254989981	 0 0 0
O 0.7878661335376121	0.7450300406669917	0.7450099916218755	 0 0 0

K_POINTS automatic
6 6 6 0 0 0
