&CONTROL
    calculation   = 'scf'
    restart_mode  = 'from_scratch'
    prefix        = 'Landau_20'
    pseudo_dir    = '/cluster/scratch/mnoe/QE/pps'
    outdir        = './'
/
&SYSTEM
    ibrav       = 0
    nat         = 32
    ntyp        = 2
    ecutwfc     = 120
    occupations = 'smearing'
    degauss     = 7.35d-4
    tot_charge  = -0.2
/
&ELECTRONS
    conv_thr    = 1.0d-8
    diagonalization = 'david'
/

CELL_PARAMETERS angstrom
   7.504245274   0.000000000   0.000000000
   0.000000000   7.522516947   0.000000000
   0.000000000   0.000000000   7.520197625

ATOMIC_SPECIES
W 183.84 W_ONCV_LDA-4.0.upf
O 15.9994 O_ONCV_LDA-3.0.upf

ATOMIC_POSITIONS crystal
W 0.23286745588317198	0.26635994356740866	0.00962359648678789	
W 0.7605881084275938	0.7336400564325913	-0.016553758259940855	
W 0.267132544116828	0.23364007658215186	0.509623600794741	
W 0.7394117310944152	0.7663600722037921	0.48344621383201536	
W 0.767132447114276	0.26635994356740866	0.49037639920525905	
W 0.2394118026238534	0.7336400564325913	0.5165537861679846	
W 0.732867392407733	0.23364007658215186	-0.009623579254975652	
W 0.26058819737614664	0.7663600722037921	0.016553775491753096	
O 0.22341242641586828	0.004097324133991479	-0.0023244148917643363	
O 0.7745533487994745	-0.004097409274767335	-0.010460832369031735	
O 0.27658755541580793	0.4959027193616161	0.49767555944781955	
O 0.7254464851034653	0.5040974092747673	0.4895391614499921	
O 0.7765874531687913	0.004097324133991479	0.5023244188251128	
O 0.22544652591532513	-0.004097409274767335	0.5104608168229402	
O 0.7234123807341485	0.4959027193616161	0.00232440964729976	
O 0.27455345591635105	0.5040974092747673	0.01046082712456716	
O 0.5052276107705559	0.22233919636920238	0.4874406990627989	
O 0.49764560138026487	0.774798901414249	0.5125594378727057	
O -0.005227623319810476	0.2776607811545207	0.9874407320627989	
O 0.0023543733339236378	0.7252012794505683	0.012559172749499872	
O 0.4947723892294441	0.22233919636920238	0.012559172749499872	
O 0.5023543986197351	0.774798901414249	0.9874407320627989	
O 0.005227573310094397	0.2776607811545207	0.5125594378727057	
O -0.002354423343639716	0.7252012794505683	0.4874406990627989	
O 0.7374406445202663	0.25083349095991003	0.745201250660149	
O 0.26255921854422876	0.7622815101260819	0.2566941754754279	
O 0.7625595202656779	0.24916650342102073	0.24520137557074484	
O 0.23744071506279893	0.7377186713006424	0.756694099263432	
O 0.26255921854422876	0.25083349095991003	0.7547986000999984	
O 0.7374406445202663	0.7622815101260819	0.2433058732231721	
O 0.23744071506279893	0.24916650342102073	0.25479867312785515	
O 0.7625595202656779	0.7377186713006424	0.7433057514967155	

K_POINTS automatic
6 6 6 0 0 0
