
&CONTROL
    calculation   = 'vc-relax'
    restart_mode  = 'from_scratch'
    prefix        = 'Landau_17'
    pseudo_dir    = '/cluster/scratch/mnoe/QE/pps'
    outdir        = './'
    forc_conv_thr = 1.0d-7
    etot_conv_thr = 1.0d-7

/
&SYSTEM
    ibrav       = 0
    nat         = 32
    ntyp        = 2
    ecutwfc     = 120
    occupations = 'smearing'
    degauss     = 7.35d-4
    tot_charge  = -0.0
/
&ELECTRONS
    conv_thr    = 1.0d-8
    diagonalization = 'david'
/


&IONS
ion_dynamics = 'bfgs'
/

&CELL
cell_dynamics = 'bfgs'
cell_dofree = 'all'
/
CELL_PARAMETERS angstrom
        7.3236460686         0.0000000000         0.0000000000
        0.0000000000         7.7495899200         0.0000000000
        0.0000000000         0.0000000000         7.3236460686

ATOMIC_SPECIES
W 183.84 W_ONCV_LDA-4.0.upf
O 15.9994 O_ONCV_LDA-3.0.upf

ATOMIC_POSITIONS crystal
W 0.242140001	0.2848661545886819	0.00743	 0 0 0
W 0.757859983	0.7151338454113181	0.992569951	 0 0 0
W 0.257859999	0.21513385642789748	0.507430016	 0 0 0
W 0.742140017	0.7848661235886819	0.492570016	 0 0 0
W 0.757859983	0.2848661545886819	0.492570016	 0 0 0
W 0.242140001	0.7151338454113181	0.507430016	 0 0 0
W 0.742140017	0.21513385642789748	0.992569951	 0 0 0
W 0.257859999	0.7848661235886819	0.00743	 0 0 0
O 0.235499987	0.014008324937775325	0.00231	 0 0 0
O 0.764500029	0.9859917052323818	0.997690025	 0 0 0
O 0.264500029	0.48599166599997917	0.502309975	 0 0 0
O 0.735499971	0.5140083112324235	0.497689993	 0 0 0
O 0.764500029	0.014008324937775325	0.497689993	 0 0 0
O 0.235499987	0.9859917052323818	0.502309975	 0 0 0
O 0.735499971	0.48599166599997917	0.997690025	 0 0 0
O 0.264500029	0.5140083112324235	0.00231	 0 0 0
O 0.502149995	0.235119995	0.46507801072755484	 0 0 0
O 0.497850005	0.76487999	0.5349219735339346	 0 0 0
O 0.997850005	0.26487999	0.9650780309806088	 0 0 0
O 0.002150059	0.735119979	0.03492201695714568	 0 0 0
O 0.497850005	0.235119995	0.03492201695714568	 0 0 0
O 0.502149995	0.76487999	0.9650780309806088	 0 0 0
O 0.002150059	0.26487999	0.5349219735339346	 0 0 0
O 0.997850005	0.735119979	0.46507801072755484	 0 0 0
O 0.7150780524910803	0.246749998	0.746739977	 0 0 0
O 0.2849220020193912	0.753250002	0.253260023	 0 0 0
O 0.7849219647704092	0.253250002	0.246739977	 0 0 0
O 0.21507802699311623	0.746749968	0.753260023	 0 0 0
O 0.2849220020193912	0.246749998	0.753260023	 0 0 0
O 0.7150780524910803	0.753250002	0.246739977	 0 0 0
O 0.21507802699311623	0.253250002	0.253260023	 0 0 0
O 0.7849219647704092	0.746749968	0.746739977	 0 0 0

K_POINTS automatic
6 6 6 0 0 0
