&CONTROL
    calculation   = 'scf'
    restart_mode  = 'from_scratch'
    prefix        = 'Landau_20'
    pseudo_dir    = '/cluster/scratch/mnoe/QE/pps'
    outdir        = './'
/
&SYSTEM
    ibrav       = 0
    nat         = 32
    ntyp        = 2
    ecutwfc     = 120
    occupations = 'smearing'
    degauss     = 7.35d-4
    tot_charge  = -0.2
/
&ELECTRONS
    conv_thr    = 1.0d-8
    diagonalization = 'david'
/

CELL_PARAMETERS angstrom
   7.504846892   0.000000000   0.000000000
   0.000000000   7.525677152   0.000000000
   0.000000000   0.000000000   7.521588575

ATOMIC_SPECIES
W 183.84 W_ONCV_LDA-4.0.upf
O 15.9994 O_ONCV_LDA-3.0.upf

ATOMIC_POSITIONS crystal
W 0.23614070719850835	0.26615167734983014	0.013087668059532528	
W 0.7638591965658819	0.7338483226501699	-0.01308765082906044	
W 0.2638592928014917	0.2338483428689223	0.5130876755510422	
W 0.7361406364340313	0.7661518081311645	0.4869123244489578	
W 0.7638591965658819	0.26615167734983014	0.4869123244489578	
W 0.23614070719850835	0.7338483226501699	0.5130876755510422	
W 0.7361406364340313	0.2338483428689223	-0.01308765082906044	
W 0.2638592928014917	0.7661518081311645	0.013087668059532528	
O 0.22443146791969104	0.004040586239888669	0.004067889724978358	
O 0.7755684118718684	-0.0040406728336957526	-0.004067894969035063	
O 0.2755685200938936	0.49595945794763857	0.5040678702470534	
O 0.7244314211280447	0.5040406728336958	0.4959321050309649	
O 0.7755684118718684	0.004040586239888669	0.4959321050309649	
O 0.22443146791969104	-0.0040406728336957526	0.5040678702470534	
O 0.7244314211280447	0.49595945794763857	-0.004067894969035063	
O 0.2755685200938936	0.5040406728336958	0.004067889724978358	
O 0.5037907098621562	0.22377222556103082	0.4879499509426806	
O 0.49620929013784376	0.7762278489575245	0.5120501882761589	
O -0.0037907345841379884	0.27622775196444027	0.9879499839426806	
O 0.003790672404608111	0.723772322554115	0.012049918932243206	
O 0.49620929013784376	0.22377222556103082	0.012049918932243206	
O 0.5037907098621562	0.7762278489575245	0.9879499839426806	
O 0.003790672404608111	0.27622775196444027	0.5120501882761589	
O -0.0037907345841379884	0.723772322554115	0.4879499509426806	
O 0.7379498952238845	0.244276488146767	0.7442539391076678	
O 0.26204996555727567	0.7557236095954681	0.25574597739228877	
O 0.7620502717762023	0.255723511853233	0.2442540713025238	
O 0.23794996694268064	0.7442765626653223	0.7557458938922453	
O 0.26204996555727567	0.244276488146767	0.7557458938922453	
O 0.7379498952238845	0.7557236095954681	0.2442540713025238	
O 0.23794996694268064	0.255723511853233	0.25574597739228877	
O 0.7620502717762023	0.7442765626653223	0.7442539391076678	

K_POINTS automatic
6 6 6 0 0 0
