&CONTROL
    calculation   = 'scf'
    restart_mode  = 'from_scratch'
    prefix        = 'Landau_16'
    pseudo_dir    = '/cluster/scratch/mnoe/QE/pps'
    outdir        = './'
/
&SYSTEM
    ibrav       = 0
    nat         = 32
    ntyp        = 2
    ecutwfc     = 120
    occupations = 'smearing'
    degauss     = 7.35d-4
    tot_charge  = -0.6
/
&ELECTRONS
    conv_thr    = 1.0d-8
    diagonalization = 'david'
/

CELL_PARAMETERS angstrom
   7.342203329   0.000000000   0.000000000
   0.000000000   7.635875795   0.000000000
   0.000000000   0.000000000   7.379586393

ATOMIC_SPECIES
W 183.84 W_ONCV_LDA-4.0.upf
O 15.9994 O_ONCV_LDA-3.0.upf

ATOMIC_POSITIONS crystal
W 0.2352	0.28027524290370653	0.013980001	
W 0.7647999915759618	0.7197247570962935	0.98602002	
W 0.264800016	0.21972477262279586	0.51397998	
W 0.7351999915759617	0.7802752282252807	0.486019987	
W 0.7647999915759618	0.28027524290370653	0.486019987	
W 0.2352	0.7197247570962935	0.51397998	
W 0.7351999915759617	0.21972477262279586	0.98602002	
W 0.264800016	0.7802752282252807	0.013980001	
O 0.222699997	0.007888264351428163	0.00435	
O 0.7772999785759618	0.9921117475920216	0.995650004	
O 0.277299987	0.4921117329135958	0.504349996	
O 0.7227000045759617	0.5078882524079784	0.495650004	
O 0.7772999785759618	0.007888264351428163	0.495650004	
O 0.222699997	0.9921117475920216	0.504349996	
O 0.7227000045759617	0.4921117329135958	0.995650004	
O 0.277299987	0.5078882524079784	0.00435	
O 0.504050025	0.221990001	0.45341505424858275	
O 0.495949975	0.778010022897536	0.5465849301259962	
O 0.995949975	0.278010015	0.9534150872485828	
O 0.004050016	0.721990023897536	0.046584947009350175	
O 0.495949975	0.221990001	0.046584947009350175	
O 0.504050025	0.778010022897536	0.9534150872485828	
O 0.004050016	0.278010015	0.5465849301259962	
O 0.995949975	0.721990023897536	0.45341505424858275	
O 0.7034150782980421	0.243880005	0.7438600045759618	
O 0.2965849373273789	0.756120002897536	0.256139987	
O 0.7965849385500345	0.256119995	0.243860013	
O 0.2034150702485828	0.7438800438975359	0.7561399785759617	
O 0.2965849373273789	0.243880005	0.7561399785759617	
O 0.7034150782980421	0.756120002897536	0.243860013	
O 0.2034150702485828	0.256119995	0.256139987	
O 0.7965849385500345	0.7438800438975359	0.7438600045759618	

K_POINTS automatic
6 6 6 0 0 0
