&CONTROL
    calculation   = 'scf'
    restart_mode  = 'from_scratch'
    prefix        = 'Landau_4'
    pseudo_dir    = '/cluster/scratch/mnoe/QE/pps'
    outdir        = './'
/
&SYSTEM
    ibrav       = 0
    nat         = 32
    ntyp        = 2
    ecutwfc     = 120
    occupations = 'smearing'
    degauss     = 7.35d-4
    tot_charge  = -0.6
/
&ELECTRONS
    conv_thr    = 1.0d-8
    diagonalization = 'david'
/

CELL_PARAMETERS angstrom
   7.375193518   0.000000000   0.000000000
   0.000000000   7.708017949   0.000000000
   0.000000000   0.000000000   7.376380402

ATOMIC_SPECIES
W 183.84 W_ONCV_LDA-4.0.upf
O 15.9994 O_ONCV_LDA-3.0.upf

ATOMIC_POSITIONS crystal
W 0.24722814143970168	0.278718337869966	0.002617533611906506	
W 0.7527718393131764	0.721281662130034	-0.0026175301658120874	
W 0.2527718585602983	0.22128167817378447	0.5026175351102085	
W 0.7472281272868062	0.7787183392262329	0.49738246488979154	
W 0.7527718393131764	0.278718337869966	0.49738246488979154	
W 0.24722814143970168	0.721281662130034	0.5026175351102085	
W 0.7472281272868062	0.22128167817378447	-0.0026175301658120874	
W 0.2527718585602983	0.7787183392262329	0.002617533611906506	
O 0.2448862935839382	0.007464117247977733	0.0008135779449956716	
O 0.7551136823743737	-0.007464116166739134	-0.0008135789938070125	
O 0.2551137040187787	0.49253588518952773	0.5008135740494106	
O 0.744886284225609	0.5074641161667391	0.499186421006193	
O 0.7551136823743737	0.007464117247977733	0.499186421006193	
O 0.2448862935839382	-0.007464116166739134	0.5008135740494106	
O 0.744886284225609	0.49253588518952773	-0.0008135789938070125	
O 0.2551137040187787	0.5074641161667391	0.0008135779449956716	
O 0.5007581419724313	0.24475444511220618	0.45722199338853614	
O 0.49924185802756876	0.7552455577915049	0.5427780080552318	
O -0.0007581469168275977	0.25524555039288804	0.9572220263885362	
O 0.0007581344809216221	0.744754452510823	0.04277799338644864	
O 0.49924185802756876	0.24475444511220618	0.04277799338644864	
O 0.5007581419724313	0.7552455577915049	0.9572220263885362	
O 0.0007581344809216221	0.25524555039288804	0.5427780080552318	
O -0.0007581469168275977	0.744754452510823	0.45722199338853614	
O 0.7072220086447769	0.2488552976293534	0.7488507878215336	
O 0.29277798991145515	0.7511447099190937	0.25114919547845777	
O 0.7927780247552405	0.2511447023706466	0.24885081426050476	
O 0.20722200938853613	0.7488553005330645	0.7511491787784491	
O 0.29277798991145515	0.2488552976293534	0.7511491787784491	
O 0.7072220086447769	0.7511447099190937	0.24885081426050476	
O 0.20722200938853613	0.2511447023706466	0.25114919547845777	
O 0.7927780247552405	0.7488553005330645	0.7488507878215336	

K_POINTS automatic
6 6 6 0 0 0
