&CONTROL
    calculation   = 'scf'
    restart_mode  = 'from_scratch'
    prefix        = 'Landau_15'
    pseudo_dir    = '/cluster/scratch/mnoe/QE/pps'
    outdir        = './'
/
&SYSTEM
    ibrav       = 0
    nat         = 32
    ntyp        = 2
    ecutwfc     = 120
    occupations = 'smearing'
    degauss     = 7.35d-4
    tot_charge  = -0.6
/
&ELECTRONS
    conv_thr    = 1.0d-8
    diagonalization = 'david'
/

CELL_PARAMETERS angstrom
   7.397692538   0.000000000   0.000000000
   0.000000000   7.581127205   0.000000000
   0.000000000   0.000000000   7.414413254

ATOMIC_SPECIES
W 183.84 W_ONCV_LDA-4.0.upf
O 15.9994 O_ONCV_LDA-3.0.upf

ATOMIC_POSITIONS crystal
W 0.2273998829659719	0.2774394838079716	0.003862980706049809	
W 0.7551498631993371	0.7225605161920284	-0.022342003543950224	
W 0.2726001170340281	0.2225605326606506	0.5038629797156723	
W 0.7448501012917323	0.7774394983352614	0.4776579632156722	
W 0.7726000757917324	0.2774394838079716	0.49613702028432777	
W 0.24485011703402812	0.7225605161920284	0.5223420367843278	
W 0.727399888699337	0.2225605326606506	-0.0038629634560498494	
W 0.2551498829659719	0.7774394983352614	0.022342020793950187	
O 0.22169056027064327	0.00711571947523267	-0.012973163581274563	
O 0.7728855195226874	-0.0071157273162998904	-0.02111816883127453	
O 0.2783094112480356	0.49288428721098987	0.48702680043740426	
O 0.7271144299853629	0.5071157273162998	0.47888181468740426	
O 0.778309375985363	0.00711571947523267	0.5129731828035393	
O 0.22711440374803557	-0.0071157273162998904	0.5211181685535393	
O 0.7216905735226873	0.49288428721098987	0.012973158331274593	
O 0.27288556777064327	0.5071157273162998	0.021118163581274562	
O 0.5076256575948591	0.21992682618117798	0.4603490431940071	
O 0.5000356455948591	0.7724418504520214	0.539650972270527	
O -0.007625649881650805	0.280073151318822	0.9603490761940071	
O -3.565063165079452e-05	0.7275582390721187	0.03965093168456989	
O 0.49237434240514083	0.21992682618117798	0.03965093168456989	
O 0.4999643544051408	0.7724418504520214	0.9603490761940071	
O 0.007625620094859168	0.280073151318822	0.539650972270527	
O 3.562084485915712e-05	0.7275582390721187	0.4603490431940071	
O 0.710349051227429	0.2617551694762935	0.7467746433914694	
O 0.2896509333080368	0.7732152304801562	0.25827962940810417	
O 0.7896509957684831	0.23824481554068722	0.24677469915810415	
O 0.21034905919400712	0.7267848592945498	0.7582796223914694	
O 0.2896509333080368	0.2617551694762935	0.7532253510656386	
O 0.710349051227429	0.7732152304801562	0.24172041934189586	
O 0.21034905919400712	0.23824481554068722	0.2532253495918959	
O 0.7896509957684831	0.7267848592945498	0.7417203720656386	

K_POINTS automatic
6 6 6 0 0 0
