
&CONTROL
    calculation   = 'vc-relax'
    restart_mode  = 'from_scratch'
    prefix        = 'Landau_26'
    pseudo_dir    = '/cluster/scratch/mnoe/QE/pps'
    outdir        = './'
    forc_conv_thr = 1.0d-7
    etot_conv_thr = 1.0d-7

/
&SYSTEM
    ibrav       = 0
    nat         = 32
    ntyp        = 2
    ecutwfc     = 120
    occupations = 'smearing'
    degauss     = 7.35d-4
    tot_charge  = -0.0
/
&ELECTRONS
    conv_thr    = 1.0d-8
    diagonalization = 'david'
/


&IONS
ion_dynamics = 'bfgs'
/

&CELL
cell_dynamics = 'bfgs'
cell_dofree = 'all'
/
CELL_PARAMETERS angstrom
        7.3236460686         0.0000000000         0.0000000000
        0.0000000000         7.7495899200         0.0000000000
        0.0000000000         0.0000000000         7.3236460686

ATOMIC_SPECIES
W 183.84 W_ONCV_LDA-4.0.upf
O 15.9994 O_ONCV_LDA-3.0.upf

ATOMIC_POSITIONS crystal
W 0.24399430645268697	0.2716495913273896	0.005671322825797429	 0 0 0
W 0.7560056337535394	0.7283504086726104	-0.005671315359259524	 0 0 0
W 0.25600569354731306	0.2283504270647995	0.5056713260721183	 0 0 0
W 0.7439942576964041	0.7716496654852569	0.4943286739278817	 0 0 0
W 0.7560056337535394	0.2716495913273896	0.4943286739278817	 0 0 0
W 0.24399430645268697	0.7283504086726104	0.5056713260721183	 0 0 0
W 0.7439942576964041	0.2283504270647995	-0.005671315359259524	 0 0 0
W 0.25600569354731306	0.7716496654852569	0.005671322825797429	 0 0 0
O 0.23892030276519943	0.005538381055927635	0.0017627522141572885	 0 0 0
O 0.7610796270528002	-0.005538429291902231	-0.0017627544865818606	 0 0 0
O 0.2610796920406872	0.49446164486596506	0.5017627437737231	 0 0 0
O 0.7389202643971433	0.5055384292919022	0.49823724551341814	 0 0 0
O 0.7610796270528002	0.005538381055927635	0.49823724551341814	 0 0 0
O 0.23892030276519943	-0.005538429291902231	0.5017627437737231	 0 0 0
O 0.7389202643971433	0.49446164486596506	-0.0017627544865818606	 0 0 0
O 0.2610796920406872	0.5055384292919022	0.0017627522141572885	 0 0 0
O 0.5016426409402677	0.2386346310764467	0.4745064695127424	 0 0 0
O 0.4983573590597323	0.7613654096758736	0.5254936094295033	 0 0 0
O -0.0016426516531264617	0.2613653591845908	0.9745065025127424	 0 0 0
O 0.0016426247086635149	0.7386346815677295	0.02549345150595808	 0 0 0
O 0.4983573590597323	0.2386346310764467	0.02549345150595808	 0 0 0
O 0.5016426409402677	0.7613654096758736	0.9745065025127424	 0 0 0
O 0.0016426247086635149	0.2613653591845908	0.5254936094295033	 0 0 0
O -0.0016426516531264617	0.7386346815677295	0.4745064695127424	 0 0 0
O 0.724506444845525	0.2475198115302657	0.7475100221883133	 0 0 0
O 0.2754934762122292	0.7524802392856492	0.25248992353665844	 0 0 0
O 0.7754936637045314	0.2524801884697343	0.247510097564427	 0 0 0
O 0.2245064855127424	0.747519852282586	0.7524898692616302	 0 0 0
O 0.2754934762122292	0.2475198115302657	0.7524898692616302	 0 0 0
O 0.724506444845525	0.7524802392856492	0.247510097564427	 0 0 0
O 0.2245064855127424	0.2524801884697343	0.25248992353665844	 0 0 0
O 0.7754936637045314	0.747519852282586	0.7475100221883133	 0 0 0

K_POINTS automatic
6 6 6 0 0 0
