
&CONTROL
    calculation   = 'vc-relax'
    restart_mode  = 'from_scratch'
    prefix        = 'Landau_19'
    pseudo_dir    = '/cluster/scratch/mnoe/QE/pps'
    outdir        = './'
    forc_conv_thr = 1.0d-7
    etot_conv_thr = 1.0d-7

/
&SYSTEM
    ibrav       = 0
    nat         = 32
    ntyp        = 2
    ecutwfc     = 120
    occupations = 'smearing'
    degauss     = 7.35d-4
    tot_charge  = -0.0
/
&ELECTRONS
    conv_thr    = 1.0d-8
    diagonalization = 'david'
/


&IONS
ion_dynamics = 'bfgs'
/

&CELL
cell_dynamics = 'bfgs'
cell_dofree = 'all'
/
CELL_PARAMETERS angstrom
        7.3236460686         0.0000000000         0.0000000000
        0.0000000000         7.7495899200         0.0000000000
        0.0000000000         0.0000000000         7.3236460686

ATOMIC_SPECIES
W 183.84 W_ONCV_LDA-4.0.upf
O 15.9994 O_ONCV_LDA-3.0.upf

ATOMIC_POSITIONS crystal
W 0.238456417157216	0.2671349465390382	0.005364439047007387	 0 0 0
W 0.7560161216127057	0.7328650534609618	-0.011217683636291564	 0 0 0
W 0.261543582842784	0.23286507335304424	0.5053644411035593	 0 0 0
W 0.7439837254791609	0.7671350671936025	0.488782298012942	 0 0 0
W 0.7615434949194886	0.2671349465390382	0.4946355588964407	 0 0 0
W 0.2439837972664372	0.7328650534609618	0.511217701987058	 0 0 0
W 0.738456352172378	0.23286507335304424	-0.0053644281314650264	 0 0 0
W 0.2560162027335628	0.7671350671936025	0.011217694551833926	 0 0 0
O 0.23294327141707694	0.004308457927291905	-0.00282221479883394	 0 0 0
O 0.7653386136725742	-0.004308537661028968	-0.007976252482012985	 0 0 0
O 0.26705671576902634	0.49569158299353533	0.49717776764138133	 0 0 0
O 0.7346612286734052	0.504308537661029	0.49202374229751106	 0 0 0
O 0.7670566259473748	0.004308457927291905	0.5028222192283281	 0 0 0
O 0.2346612795787753	-0.004308537661028968	0.5079762445721984	 0 0 0
O 0.7329432163986047	0.49569158299353533	0.0028222114767123643	 0 0 0
O 0.26533870760732803	0.504308537661029	0.007976249159891409	 0 0 0
O 0.5036147860682535	0.23217602765103987	0.48554566430965895	 0 0 0
O 0.49881193982530225	0.7654068023061167	0.5144544641290705	 0 0 0
O -0.0036147914469283502	0.2678239581112961	0.985545697309659	 0 0 0
O 0.0011880467280133895	0.7345933525816637	0.01445421471202489	 0 0 0
O 0.49638521393174645	0.23217602765103987	0.01445421471202489	 0 0 0
O 0.5011880601746977	0.7654068023061167	0.985545697309659	 0 0 0
O 0.0036147623388136053	0.2678239581112961	0.5144544641290705	 0 0 0
O -0.0011880758361281342	0.7345933525816637	0.48554566430965895	 0 0 0
O 0.7355456141442529	0.25191258798368876	0.7471603117407473	 0 0 0
O 0.26445425741701734	0.7591643902707219	0.25444056368730195	 0 0 0
O 0.764454542402394	0.24808740727042403	0.24716041564186678	 0 0 0
O 0.23554568030965897	0.740835764933451	0.7544404906344545	 0 0 0
O 0.26445425741701734	0.25191258798368876	0.7528395448428937	 0 0 0
O 0.7355456141442529	0.7591643902707219	0.24555946716097002	 0 0 0
O 0.23554568030965897	0.24808740727042403	0.2528396152064052	 0 0 0
O 0.764454542402394	0.740835764933451	0.7455593659491866	 0 0 0

K_POINTS automatic
6 6 6 0 0 0
