
&CONTROL
    calculation   = 'vc-relax'
    restart_mode  = 'from_scratch'
    prefix        = 'Landau_37'
    pseudo_dir    = '/cluster/scratch/mnoe/QE/pps'
    outdir        = './'
    forc_conv_thr = 1.0d-7
    etot_conv_thr = 1.0d-7

/
&SYSTEM
    ibrav       = 0
    nat         = 32
    ntyp        = 2
    ecutwfc     = 120
    occupations = 'smearing'
    degauss     = 7.35d-4
    tot_charge  = -0.0
/
&ELECTRONS
    conv_thr    = 1.0d-8
    diagonalization = 'david'
/


&IONS
ion_dynamics = 'bfgs'
/

&CELL
cell_dynamics = 'bfgs'
cell_dofree = 'all'
/
CELL_PARAMETERS angstrom
        7.3236460686         0.0000000000         0.0000000000
        0.0000000000         7.7495899200         0.0000000000
        0.0000000000         0.0000000000         7.3236460686

ATOMIC_SPECIES
W 183.84 W_ONCV_LDA-4.0.upf
O 15.9994 O_ONCV_LDA-3.0.upf

ATOMIC_POSITIONS crystal
W 0.232889993	0.28840280351654296	0.01616	 0 0 0
W 0.767109975	0.7115971964834571	0.983840008	 0 0 0
W 0.267109991	0.21159720281365924	0.516160024	 0 0 0
W 0.732890025	0.7884027725165429	0.483839976	 0 0 0
W 0.767109975	0.28840280351654296	0.483839976	 0 0 0
W 0.232889993	0.7115971964834571	0.516160024	 0 0 0
W 0.732890025	0.21159720281365924	0.983840008	 0 0 0
W 0.267109991	0.7884027725165429	0.01616	 0 0 0
O 0.218429991	0.020700471923393353	0.00503	 0 0 0
O 0.781570025	0.9792995666822428	0.994970041	 0 0 0
O 0.281570025	0.47929951776466057	0.505029992	 0 0 0
O 0.718429975	0.5207004691529217	0.494970008	 0 0 0
O 0.781570025	0.020700471923393353	0.494970008	 0 0 0
O 0.218429991	0.9792995666822428	0.505029992	 0 0 0
O 0.718429975	0.47929951776466057	0.994970041	 0 0 0
O 0.281570025	0.5207004691529217	0.00503	 0 0 0
O 0.504679983	0.217620002	0.4833580186423253	 0 0 0
O 0.495320017	0.782379982	0.5166419859267988	 0 0 0
O 0.995320017	0.282379982	0.9833580238989721	 0 0 0
O 0.004679918	0.717619987	0.016642022789081785	 0 0 0
O 0.495320017	0.217620002	0.016642022789081785	 0 0 0
O 0.504679983	0.782379982	0.9833580238989721	 0 0 0
O 0.004679918	0.282379982	0.5166419859267988	 0 0 0
O 0.995320017	0.717619987	0.4833580186423253	 0 0 0
O 0.7333580707158806	0.242929991	0.74291003	 0 0 0
O 0.2666420091010279	0.757069993	0.25708997	 0 0 0
O 0.7666419668532435	0.257070009	0.24291003	 0 0 0
O 0.2333580352203118	0.742929976	0.75708997	 0 0 0
O 0.2666420091010279	0.242929991	0.75708997	 0 0 0
O 0.7333580707158806	0.757069993	0.24291003	 0 0 0
O 0.2333580352203118	0.257070009	0.25708997	 0 0 0
O 0.7666419668532435	0.742929976	0.74291003	 0 0 0

K_POINTS automatic
6 6 6 0 0 0
