&CONTROL
    calculation   = 'scf'
    restart_mode  = 'from_scratch'
    prefix        = 'Landau_35'
    pseudo_dir    = '/cluster/scratch/mnoe/QE/pps'
    outdir        = './'
/
&SYSTEM
    ibrav       = 0
    nat         = 32
    ntyp        = 2
    ecutwfc     = 120
    occupations = 'smearing'
    degauss     = 7.35d-4
    tot_charge  = -0.15
/
&ELECTRONS
    conv_thr    = 1.0d-8
    diagonalization = 'david'
/

CELL_PARAMETERS angstrom
   7.461326189   0.000000000   0.000000000
   0.000000000   7.526988182   0.000000000
   0.000000000   0.000000000   7.421496292

ATOMIC_SPECIES
W 183.84 W_ONCV_LDA-4.0.upf
O 15.9994 O_ONCV_LDA-3.0.upf

ATOMIC_POSITIONS crystal
W        0.233809991	0.29374599040000005	0.015289999	
W        0.766190009	0.7062540096	0.984709968	
W        0.266189992	0.20625400885	0.515290032	
W        0.733809991	0.7937459594	0.484710001	
W       0.766190009	0.29374599040000005	0.484710001	
W       0.233809991	0.7062540096	0.515290032	
W       0.733809991	0.20625400885	0.984709968	
W       0.266189992	0.7937459594	0.015289999	
O        0.220139993	0.03081100105	0.00475	
O        0.779859991	0.9691890502999999	0.995249957	
O        0.279860024	0.46918898675000004	0.504750011	
O        0.720140009	0.5308110148	0.495249989	
O        0.779859991	0.03081100105	0.495249989	
O        0.220139993	0.9691890502999999	0.504750011	
O        0.720140009	0.46918898675000004	0.995249957	
O        0.279860024	0.5308110148	0.00475	
O    0.504419991	0.219369998	0.5109755460000001	
O    0.495580009	0.780630002	0.48902448924999997	
O    0.995580009	0.280630002	1.0109755286	
O    0.004420042	0.719370029	-0.010975483800000005	
O   0.495580009	0.219369998	-0.010975483800000005	
O   0.504419991	0.780630002	1.0109755286	
O   0.004420042	0.280630002	0.48902448924999997	
O   0.995580009	0.719370029	0.5109755460000001	
O   0.76097561365	0.24331	0.743290024	
O   0.23902450440000003	0.756690031	0.256709993	
O   0.7390244546	0.25669	0.243289942	
O   0.26097556305	0.74331	0.756709976	
O   0.23902450440000003	0.24331	0.756709976	
O   0.76097561365	0.756690031	0.243289942	
O   0.26097556305	0.25669	0.256709993	
O   0.7390244546	0.74331	0.743290024	

K_POINTS automatic
6 6 6 0 0 0
