&CONTROL
    calculation   = 'scf'
    restart_mode  = 'from_scratch'
    prefix        = 'Landau_23'
    pseudo_dir    = '/cluster/scratch/mnoe/QE/pps'
    outdir        = './'
    forc_conv_thr = 1.0d-7
    etot_conv_thr = 1.0d-7

/
&SYSTEM
    ibrav       = 0
    nat         = 32
    ntyp        = 2
    ecutwfc     = 120
    occupations = 'smearing'
    degauss     = 7.35d-4
    tot_charge  = -0.36
/
&ELECTRONS
    conv_thr    = 1.0d-8
    diagonalization = 'david'
/

CELL_PARAMETERS angstrom
   7.319536187   0.000000000   0.000000000
   0.000000000   7.700136968   0.000000000
   0.000000000   0.000000000   7.339433509

ATOMIC_SPECIES
W 183.84 W_ONCV_LDA-4.0.upf
O 15.9994 O_ONCV_LDA-3.0.upf

ATOMIC_POSITIONS crystal
W         0.239360000         0.281860003         0.010050000
W         0.760640000         0.718139997         0.989949978
W         0.260640000         0.218140012         0.510049989
W         0.739360000         0.781859972         0.489950011
W         0.760640000         0.281860003         0.489950011
W         0.239360000         0.718139997         0.510049989
W         0.739360000         0.218140012         0.989949978
W         0.260640000         0.781859972         0.010050000
O         0.230379994         0.008320000         0.003120000
O         0.769619973         0.991680023         0.996879968
O         0.269620006         0.491679992         0.503119999
O         0.730380027         0.508319977         0.496880001
O         0.769619973         0.008320000         0.496880001
O         0.230379994         0.991680023         0.503119999
O         0.730380027         0.491679992         0.996879968
O         0.269620006         0.508319977         0.003120000
O         0.502910014         0.229870006         0.449540004
O         0.497089986         0.770129994         0.550459963
O         0.997089954         0.270129994         0.949540037
O         0.002910018         0.729870037         0.050460012
O         0.497089986         0.229870006         0.050460012
O         0.502910014         0.770129994         0.949540037
O         0.002910018         0.270129994         0.550459963
O         0.997089954         0.729870037         0.449540004
O         0.699540037         0.245600004         0.745589971
O         0.300459996         0.754400042         0.254410029
O         0.800459963         0.254400011         0.245589971
O         0.199540020         0.745599989         0.754410029
O         0.300459996         0.245600004         0.754410029
O         0.699540037         0.754400042         0.245589971
O         0.199540020         0.254400011         0.254410029
O         0.800459963         0.745599989         0.745589971

K_POINTS automatic
6 6 6 0 0 0
