
&CONTROL
    calculation   = 'vc-relax'
    restart_mode  = 'from_scratch'
    prefix        = 'Landau_6'
    pseudo_dir    = '/cluster/scratch/mnoe/QE/pps'
    outdir        = './'
    forc_conv_thr = 1.0d-7
    etot_conv_thr = 1.0d-7

/
&SYSTEM
    ibrav       = 0
    nat         = 32
    ntyp        = 2
    ecutwfc     = 120
    occupations = 'smearing'
    degauss     = 7.35d-4
    tot_charge  = -0.0
/
&ELECTRONS
    conv_thr    = 1.0d-8
    diagonalization = 'david'
/


&IONS
ion_dynamics = 'bfgs'
/

&CELL
cell_dynamics = 'bfgs'
cell_dofree = 'all'
/
CELL_PARAMETERS angstrom
        7.3236460686         0.0000000000         0.0000000000
        0.0000000000         7.7495899200         0.0000000000
        0.0000000000         0.0000000000         7.3236460686

ATOMIC_SPECIES
W 183.84 W_ONCV_LDA-4.0.upf
O 15.9994 O_ONCV_LDA-3.0.upf

ATOMIC_POSITIONS crystal
0.255390012	0.281860003	0.25014999	 0 0 0
-0.25015001699999995	0.718139997	-0.7446100370000001	 0 0 0
0.24461001999999993	0.218140012	0.750150034	 0 0 0
0.7501499899999999	0.781859972	0.7553900120000001	 0 0 0
0.7446100099999999	0.281860003	0.7498499980000001	 0 0 0
0.2501500339999999	0.718139997	0.74461002	 0 0 0
-0.24461003699999995	0.218140012	-0.7501500170000001	 0 0 0
0.24984999800000002	0.781859972	0.24461001	 0 0 0
0.25594001200000005	0.00832	0.254300009	 0 0 0
-0.25430005499999997	0.991680023	-0.7440600370000001	 0 0 0
0.244060037	0.491679992	0.7542999890000001	 0 0 0
0.7543000089999999	0.508319977	0.7559399950000001	 0 0 0
0.7440599910000001	0.00832	0.7457000260000001	 0 0 0
0.254300006	0.991680023	0.74406002	 0 0 0
-0.244060037	0.491679992	-0.7543000550000001	 0 0 0
0.24570004300000003	0.508319977	0.24405999100000003	 0 0 0
0.49808997499999996	0.25639999799999996	0.6995400039999999	 0 0 0
0.49961001299999996	0.74589996	0.800459963	 0 0 0
-0.998089943	0.24359998700000002	1.199540037	 0 0 0
0.00038992800000003675	0.7540998879999999	0.300460012	 0 0 0
0.501910025	0.25639999799999996	0.300460012	 0 0 0
0.500389987	0.74589996	1.199540037	 0 0 0
-0.0019100840000000367	0.24359998700000002	0.800459963	 0 0 0
-1.0003899550000002	0.7540998879999999	0.6995400039999999	 0 0 0
0.6995400369999999	0.24589999	2.000389955	 0 0 0
0.300459996	0.7435999409999999	0.49808997499999996	 0 0 0
0.800459963	0.254099995	0.500389987	 0 0 0
0.19954001999999996	0.756399907	1.998089943	 0 0 0
0.300459996	0.24589999	0.999610072	 0 0 0
0.699540037	0.7435999409999999	0.501910025	 0 0 0
0.19954002	0.254099995	0.49961001299999996	 0 0 0
0.800459963	0.756399907	1.0019100840000001	 0 0 0

K_POINTS automatic
6 6 6 0 0 0
