
&CONTROL
    calculation   = 'vc-relax'
    restart_mode  = 'from_scratch'
    prefix        = 'Landau_13'
    pseudo_dir    = '/cluster/scratch/mnoe/QE/pps'
    outdir        = './'
    forc_conv_thr = 1.0d-7
    etot_conv_thr = 1.0d-7

/
&SYSTEM
    ibrav       = 0
    nat         = 32
    ntyp        = 2
    ecutwfc     = 120
    occupations = 'smearing'
    degauss     = 7.35d-4
    tot_charge  = -0.0
/
&ELECTRONS
    conv_thr    = 1.0d-8
    diagonalization = 'david'
/


&IONS
ion_dynamics = 'bfgs'
/

&CELL
cell_dynamics = 'bfgs'
cell_dofree = 'all'
/
CELL_PARAMETERS angstrom
        7.3236460686         0.0000000000         0.0000000000
        0.0000000000         7.7495899200         0.0000000000
        0.0000000000         0.0000000000         7.3236460686

ATOMIC_SPECIES
W 183.84 W_ONCV_LDA-4.0.upf
O 15.9994 O_ONCV_LDA-3.0.upf

ATOMIC_POSITIONS crystal
W 0.255640005	0.2746601726675909	-0.994069979	 0 0 0
W 0.7440699406217596	0.7253398273324091	-0.994359946	 0 0 0
W 0.244359995	0.225339844731049	-0.49406999500000004	 0 0 0
W 0.7559299506217595	0.774660247025432	-0.494359995	 0 0 0
W 0.7443599076217595	0.2746601726675909	-0.505930005	 0 0 0
W 0.255930005	0.7253398273324091	-0.5056400050000001	 0 0 0
W 0.7556399826217596	0.225339844731049	-1.005929989	 0 0 0
W 0.244069995	0.774660247025432	-1.005640021	 0 0 0
O 0.262009975	0.0063630853819694674	-0.988050014	 0 0 0
O 0.7380499756217596	0.9936368772465898	-0.987990041	 0 0 0
O 0.237990009	0.4936369516044309	-0.48804999800000004	 0 0 0
O 0.7619499796217595	0.5063631227534102	-0.487990009	 0 0 0
O 0.7379900026217595	0.0063630853819694674	-0.5119500180000001	 0 0 0
O 0.261950018	0.9936368772465898	-0.512009975	 0 0 0
O 0.7620099526217595	0.4936369516044309	-1.0119500179999998	 0 0 0
O 0.238049998	0.5063631227534102	-1.012009991	 0 0 0
O 0.497499951	0.264350007	-0.5329360189336797	 0 0 0
O 0.501639947	0.7398400889796005	-0.4670638859111992	 0 0 0
O 0.002499998	0.235650008	-1.0329360189336798	 0 0 0
O 0.998360021	0.7601599829796005	-0.9670640162282412	 0 0 0
O 0.502499984	0.264350007	-0.9670640162282412	 0 0 0
O 0.498360021	0.7398400889796005	-1.0329360189336798	 0 0 0
O 0.997500016	0.235650008	-0.4670638859111992	 0 0 0
O 0.001639992	0.7601599829796005	-0.5329360189336797	 0 0 0
O 0.7170639082894397	0.239840007	-0.2516400303782405	 0 0 0
O 0.2829359805554391	0.7356500589796006	-0.752499984	 0 0 0
O 0.7829361364670413	0.260160008	-0.751639947	 0 0 0
O 0.21706396506632022	0.7643500129796005	-0.25250003637824053	 0 0 0
O 0.2829359805554391	0.239840007	-1.2483600593782405	 0 0 0
O 0.7170639082894397	0.7356500589796006	-0.747499951	 0 0 0
O 0.21706396506632022	0.260160008	-0.748360021	 0 0 0
O 0.7829361364670413	0.7643500129796005	-1.2475000543782406	 0 0 0

K_POINTS automatic
6 6 6 0 0 0
