
&CONTROL
    calculation   = 'vc-relax'
    restart_mode  = 'from_scratch'
    prefix        = 'Landau_35'
    pseudo_dir    = '/cluster/scratch/mnoe/QE/pps'
    outdir        = './'
    forc_conv_thr = 1.0d-7
    etot_conv_thr = 1.0d-7

/
&SYSTEM
    ibrav       = 0
    nat         = 32
    ntyp        = 2
    ecutwfc     = 120
    occupations = 'smearing'
    degauss     = 7.35d-4
    tot_charge  = -0.0
/
&ELECTRONS
    conv_thr    = 1.0d-8
    diagonalization = 'david'
/


&IONS
ion_dynamics = 'bfgs'
/

&CELL
cell_dynamics = 'bfgs'
cell_dofree = 'all'
/
CELL_PARAMETERS angstrom
        7.3236460686         0.0000000000         0.0000000000
        0.0000000000         7.7495899200         0.0000000000
        0.0000000000         0.0000000000         7.3236460686

ATOMIC_SPECIES
W 183.84 W_ONCV_LDA-4.0.upf
O 15.9994 O_ONCV_LDA-3.0.upf

ATOMIC_POSITIONS crystal
W 0.2419154125324632	0.2681152180561014	0.007634473034727309	 0 0 0
W 0.7580845069759184	0.7318847819438986	-0.007634462983618588	 0 0 0
W 0.2580845874675368	0.23188480151030702	0.5076344774047746	 0 0 0
W 0.7419153468990056	0.7681153286147689	0.4923655225952254	 0 0 0
W 0.7580845069759184	0.2681152180561014	0.4923655225952254	 0 0 0
W 0.2419154125324632	0.7318847819438986	0.5076344774047746	 0 0 0
W 0.7419153468990056	0.23188480151030702	-0.007634462983618588	 0 0 0
W 0.2580845874675368	0.7681153286147689	0.007634473034727309	 0 0 0
O 0.2350850229531531	0.004575512959902585	0.002372935672904042	 0 0 0
O 0.7649148825710772	-0.004575585854483781	-0.00237293873193712	 0 0 0
O 0.26491497005477127	0.49542452470418374	0.5023729243107811	 0 0 0
O 0.7350849713038468	0.5045755858544838	0.49762706126806283	 0 0 0
O 0.7649148825710772	0.004575512959902585	0.49762706126806283	 0 0 0
O 0.2350850229531531	-0.004575585854483781	0.5023729243107811	 0 0 0
O 0.7350849713038468	0.49542452470418374	-0.00237293873193712	 0 0 0
O 0.26491497005477127	0.5045755858544838	0.002372935672904042	 0 0 0
O 0.5022112474195911	0.23470046491060131	0.4831487075748455	 0 0 0
O 0.4977887525804089	0.7652995951405991	0.5168514101166389	 0 0 0
O -0.00221126184074716	0.2652995219792568	0.9831487405748456	 0 0 0
O 0.0022112255693547316	0.7347005380719436	0.016851180565712803	 0 0 0
O 0.4977887525804089	0.23470046491060131	0.016851180565712803	 0 0 0
O 0.5022112474195911	0.7652995951405991	0.9831487405748456	 0 0 0
O 0.0022112255693547316	0.2652995219792568	0.5168514101166389	 0 0 0
O -0.00221126184074716	0.7347005380719436	0.4831487075748455	 0 0 0
O 0.733148662945899	0.24666128475228075	0.7466481067919603	 0 0 0
O 0.2668512193626162	0.7533387888460663	0.2533518201455018	 0 0 0
O 0.766851483179177	0.2533387152477192	0.24664820825980555	 0 0 0
O 0.23314872357484556	0.7466613448034811	0.7533517470829637	 0 0 0
O 0.2668512193626162	0.24666128475228075	0.7533517470829637	 0 0 0
O 0.733148662945899	0.7533387888460663	0.24664820825980555	 0 0 0
O 0.23314872357484556	0.2533387152477192	0.2533518201455018	 0 0 0
O 0.766851483179177	0.7466613448034811	0.7466481067919603	 0 0 0

K_POINTS automatic
6 6 6 0 0 0
