
&CONTROL
    calculation   = 'vc-relax'
    restart_mode  = 'from_scratch'
    prefix        = 'Landau_1'
    pseudo_dir    = '/cluster/scratch/mnoe/QE/pps'
    outdir        = './'
    forc_conv_thr = 1.0d-7
    etot_conv_thr = 1.0d-7

/
&SYSTEM
    ibrav       = 0
    nat         = 32
    ntyp        = 2
    ecutwfc     = 120
    occupations = 'smearing'
    degauss     = 7.35d-4
    tot_charge  = -0.0
/
&ELECTRONS
    conv_thr    = 1.0d-8
    diagonalization = 'david'
/


&IONS
ion_dynamics = 'bfgs'
/

&CELL
cell_dynamics = 'bfgs'
cell_dofree = 'all'
/
CELL_PARAMETERS angstrom
        7.3236460686         0.0000000000         0.0000000000
        0.0000000000         7.7495899200         0.0000000000
        0.0000000000         0.0000000000         7.3236460686

ATOMIC_SPECIES
W 183.84 W_ONCV_LDA-4.0.upf
O 15.9994 O_ONCV_LDA-3.0.upf

ATOMIC_POSITIONS crystal
W 0.2491433727941586	0.28108500002837045	0.0004811798243393946	 0 0 0
W 0.7505294054213797	0.7189149999716296	-0.0008276879129970428	 0 0 0
W 0.2508566272058414	0.21891501522910758	0.5004811800397371	 0 0 0
W 0.7494705865547208	0.7810849770101896	0.4991723106916008	 0 0 0
W 0.7508566223557138	0.28108500002837045	0.4995188199602629	 0 0 0
W 0.24947059013119266	0.7189149999716296	0.5008276893083993	 0 0 0
W 0.7491433696203866	0.21891501522910758	-0.00048117896274878257	 0 0 0
W 0.25052940986880734	0.7810849770101896	0.0008276887745876548	 0 0 0
O 0.2486706213207934	0.008108866206699573	-0.00011622074458821682	 0 0 0
O 0.7512276674399737	-0.008108848613738347	-0.0005230416184515868	 0 0 0
O 0.2513293777707904	0.4918911283680808	0.499883777972391	 0 0 0
O 0.7487723242551733	0.5081088486137384	0.4994769580724996	 0 0 0
O 0.7513293726584396	0.008108866206699573	0.5001162209412556	 0 0 0
O 0.24877232629576626	-0.008108848613738347	0.500523040841147	 0 0 0
O 0.7486706190367074	0.4918911283680808	0.00011622048236498804	 0 0 0
O 0.25122767279581754	0.5081088486137384	0.000523041356228358	 0 0 0
O 0.5002613805385278	0.24861695981846013	0.45143503875313995	 0 0 0
O 0.49988228006901325	0.7512399308207124	0.5485649367436353	 0 0 0
O -0.0002613811659905238	0.251383039057726	0.9514350717531399	 0 0 0
O 0.00011771866669618185	0.7487600497225284	0.048564970037474994	 0 0 0
O 0.4997386194614722	0.24861695981846013	0.048564970037474994	 0 0 0
O 0.5001177199309867	0.7512399308207124	0.9514350717531399	 0 0 0
O 0.00026137866550471984	0.251383039057726	0.5485649367436353	 0 0 0
O -0.00011772116718198583	0.7487600497225284	0.45143503875313995	 0 0 0
O 0.7014350673760134	0.2500416745479955	0.7497600625330074	 0 0 0
O 0.29856495712721143	0.750614061256304	0.2503347087737714	 0 0 0
O 0.7985649408632839	0.24995832517105104	0.24976006877853724	 0 0 0
O 0.20143505475313997	0.7493859193150321	0.7503347049631716	 0 0 0
O 0.29856495712721143	0.2500416745479955	0.7502399300049999	 0 0 0
O 0.7014350673760134	0.750614061256304	0.2496652936611586	 0 0 0
O 0.20143505475313997	0.24995832517105104	0.25023993365639274	 0 0 0
O 0.7985649408632839	0.7493859193150321	0.7496652875748357	 0 0 0

K_POINTS automatic
6 6 6 0 0 0
