&CONTROL
    calculation   = 'scf'
    restart_mode  = 'from_scratch'
    prefix        = 'Landau_17'
    pseudo_dir    = '/cluster/scratch/mnoe/QE/pps'
    outdir        = './'
/
&SYSTEM
    ibrav       = 0
    nat         = 32
    ntyp        = 2
    ecutwfc     = 120
    occupations = 'smearing'
    degauss     = 7.35d-4
    tot_charge  = -1.0
/
&ELECTRONS
    conv_thr    = 1.0d-8
    diagonalization = 'david'
/

CELL_PARAMETERS angstrom
   7.387287881   0.000000000   0.000000000
   0.000000000   7.547137466   0.000000000
   0.000000000   0.000000000   7.405259078

ATOMIC_SPECIES
W 183.84 W_ONCV_LDA-4.0.upf
O 15.9994 O_ONCV_LDA-3.0.upf

ATOMIC_POSITIONS crystal
W 0.22315047578161418	0.2784942782399734	0.0030691127939635084	
W 0.7546004644542662	0.7215057217600266	-0.026629869356036534	
W 0.2768495242183858	0.22150573787821604	0.5030691104687322	
W 0.7453995144095702	0.7784942819038488	0.47337009176873207	
W 0.7768494855095702	0.2784942782399734	0.4969308895312679	
W 0.24539952421838584	0.7215057217600266	0.5266299082312679	
W 0.7231504933542662	0.22150573787821604	-0.0030690932439635544	
W 0.25460047578161416	0.7784942819038488	0.02662988890603649	
O 0.2175317782263202	0.007403076759956945	-0.017117721066125066	
O 0.7755527407852878	-0.007403077241937011	-0.026348727016125034	
O 0.28246818715999533	0.49259692642193836	0.4828822358201904	
O 0.7244472189751991	0.507403077241937	0.4736512519701904	
O 0.7824681577751992	0.007403076759956945	0.5171177463182626	
O 0.22444717865999536	-0.007403077241937011	0.5263487301682627	
O 0.7175318019852878	0.49259692642193836	0.0171177151161251	
O 0.27555278672632016	0.507403077241937	0.02634872106612507	
O 0.5091850875834454	0.21537651577475192	0.4577698632692398	
O 0.5005830739834455	0.7748935381492696	0.5422301406310146	
O -0.009185074242854776	0.284623458725248	0.9577698962692398	
O -0.0005830750928547627	0.7251065552398936	0.04223012142145342	
O 0.49081491241655456	0.21537651577475192	0.04223012142145342	
O 0.4994169260165545	0.7748935381492696	0.9577698962692398	
O 0.009185045083445439	0.284623458725248	0.5422301406310146	
O 0.0005830459334454268	0.7251065552398936	0.4577698632692398	
O 0.7077698772600178	0.2657995908697742	0.7467026184054848	
O 0.2922301188397277	0.7787876569976415	0.2597415914828328	
O 0.792230158522047	0.23420039002687618	0.2467026705328328	
O 0.2077698792692398	0.7212124366047434	0.7597415946054848	
O 0.2922301188397277	0.2657995908697742	0.7532973986650506	
O 0.7077698772600178	0.7787876569976415	0.24025846376716725	
O 0.2077698792692398	0.23420039002687618	0.2532973847171673	
O 0.792230158522047	0.7212124366047434	0.7402584224650507	

K_POINTS automatic
6 6 6 0 0 0
