&CONTROL
    calculation   = 'scf'
    restart_mode  = 'from_scratch'
    prefix        = 'Landau_20'
    pseudo_dir    = '/cluster/scratch/mnoe/QE/pps'
    outdir        = './'
/
&SYSTEM
    ibrav       = 0
    nat         = 32
    ntyp        = 2
    ecutwfc     = 120
    occupations = 'smearing'
    degauss     = 7.35d-4
    tot_charge  = -1.0
/
&ELECTRONS
    conv_thr    = 1.0d-8
    diagonalization = 'david'
/

CELL_PARAMETERS angstrom
   7.439113240   0.000000000   0.000000000
   0.000000000   7.479018065   0.000000000
   0.000000000   0.000000000   7.470898993

ATOMIC_SPECIES
W 183.84 W_ONCV_LDA-4.0.upf
O 15.9994 O_ONCV_LDA-3.0.upf

ATOMIC_POSITIONS crystal
W 0.2213206967936339	0.27401539607301895	0.006690560948724779	
W 0.758320657322616	0.725984603926981	-0.028249418051275274	
W 0.27867930320636614	0.22598462153318255	0.5066905610432842	
W 0.7416792726804106	0.7740154458652692	0.47175053904328423	
W 0.7786792386804106	0.27401539607301895	0.4933094389567157	
W 0.24167930320636613	0.725984603926981	0.5282494609567158	
W 0.721320691322616	0.22598462153318255	-0.006690537948724833	
W 0.2583206967936339	0.7740154458652692	0.02824944105127522	
O 0.21270606869075048	0.006182896429981736	-0.014456607511486985	
O 0.7809660039915246	-0.006182928160215701	-0.025316614511486944	
O 0.2872938960810415	0.49381712163203445	0.48554334726030496	
O 0.7190339085313129	0.5061829281602157	0.47468336626030494	
O 0.7872938365313129	0.006182896429981736	0.5144566290624625	
O 0.2190338860810415	-0.006182928160215701	0.5253166100624626	
O 0.7127060759915246	0.49381712163203445	0.014456600511487026	
O 0.2809660786907505	0.5061829281602157	0.025316607511486986	
O 0.5095291015273357	0.21053838066970765	0.4687216114202835	
O 0.4994090855273357	0.7805584265028266	0.5312784415843698	
O -0.009529096653592608	0.2894615893302923	0.9687216444202835	
O 0.000590902346407407	0.7194417172262734	0.03127833160607116	
O 0.4904708984726643	0.21053838066970765	0.03127833160607116	
O 0.5005909144726642	0.7805584265028266	0.9687216444202835	
O 0.009529051527335696	0.2894615893302923	0.5312784415843698	
O -0.0005909474726643188	0.7194417172262734	0.4687216114202835	
O 0.7187216001148561	0.2627593646390091	0.7452783214217703	
O 0.28127834688049047	0.7780394569523171	0.26061831589278817	
O 0.7812784832835956	0.23724061788080172	0.24527840889278818	
O 0.21872162742028353	0.7219606871941098	0.7606182934217703	
O 0.28127834688049047	0.2627593646390091	0.7547216435416345	
O 0.7187216001148561	0.7780394569523171	0.23938174910721186	
O 0.21872162742028353	0.23724061788080172	0.25472165610721187	
O 0.7812784832835956	0.7219606871941098	0.7393816715416345	

K_POINTS automatic
6 6 6 0 0 0
