# Phonon frequency and phonon lifetime in meV 
# Q-point  Mode   Phonon freq (meV)   Phonon linewidth (meV)
        1     1     -0.16151443E-03      0.0000000000E+00
        1     2     -0.16151340E-03      0.0000000000E+00
        1     3     -0.68876317E-04      0.0000000000E+00
        1     4      0.36472707E+01      0.0000000000E+00
        1     5      0.15172978E+02      0.0000000000E+00
        1     6      0.15172978E+02      0.0000000000E+00
        1     7      0.16499107E+02      0.0000000000E+00
        1     8      0.30444874E+02      0.0000000000E+00
        1     9      0.30444874E+02      0.0000000000E+00
        1    10      0.30734216E+02      0.0000000000E+00
        1    11      0.33066579E+02      0.0000000000E+00
        1    12      0.33066579E+02      0.0000000000E+00
        1    13      0.39050952E+02      0.0000000000E+00
        1    14      0.39050952E+02      0.0000000000E+00
        1    15      0.39916720E+02      0.0000000000E+00
        1    16      0.45412202E+02      0.0000000000E+00
        1    17      0.45412202E+02      0.0000000000E+00
        1    18      0.56930784E+02      0.0000000000E+00
        1    19      0.77018463E+02      0.0000000000E+00
        1    20      0.77018463E+02      0.0000000000E+00
        1    21      0.78188509E+02      0.0000000000E+00
        1    22      0.95861417E+02      0.0000000000E+00
        1    23      0.96381627E+02      0.0000000000E+00
        1    24      0.12837424E+03      0.0000000000E+00
        2     1      0.16690000E+00      0.0000000000E+00
        2     2      0.16690000E+00      0.0000000000E+00
        2     3      0.31598516E+00      0.0000000000E+00
        2     4      0.36469402E+01     -0.2089216580E-06
        2     5      0.15176701E+02     -0.6399321268E-05
        2     6      0.15176701E+02     -0.6399321268E-05
        2     7      0.16502613E+02     -0.3268371137E-05
        2     8      0.30438254E+02     -0.5572872130E-06
        2     9      0.30438254E+02     -0.5572872130E-06
        2    10      0.30734372E+02     -0.3127854476E-06
        2    11      0.33068530E+02     -0.2213444471E-06
        2    12      0.33068530E+02     -0.2213444471E-06
        2    13      0.39050753E+02     -0.1250204946E-07
        2    14      0.39050753E+02     -0.1250204946E-07
        2    15      0.39921197E+02     -0.1612201606E-06
        2    16      0.45415433E+02     -0.2185807328E-06
        2    17      0.45415433E+02     -0.2185807328E-06
        2    18      0.56930680E+02     -0.2166779847E-09
        2    19      0.77017933E+02     -0.6882719878E-10
        2    20      0.77017933E+02     -0.6882719878E-10
        2    21      0.78187420E+02     -0.1887758200E-10
        2    22      0.95864893E+02     -0.5528347169E-12
        2    23      0.96395057E+02     -0.8491411126E-12
        2    24      0.12837514E+03     -0.1476018287E-18
        3     1      0.33350433E+00      0.0000000000E+00
        3     2      0.33350433E+00      0.0000000000E+00
        3     3      0.63219151E+00     -0.1706171933E-04
        3     4      0.36459486E+01     -0.8111116285E-06
        3     5      0.15187861E+02     -0.3331363431E-04
        3     6      0.15187861E+02     -0.3331363431E-04
        3     7      0.16513127E+02     -0.7803380276E-05
        3     8      0.30418455E+02     -0.1980909643E-05
        3     9      0.30418455E+02     -0.1980909643E-05
        3    10      0.30734839E+02     -0.3185361523E-05
        3    11      0.33074334E+02     -0.1511597176E-05
        3    12      0.33074334E+02     -0.1511597176E-05
        3    13      0.39050159E+02     -0.9568886362E-07
        3    14      0.39050159E+02     -0.9568886362E-07
        3    15      0.39934597E+02     -0.1621693059E-05
        3    16      0.45425110E+02     -0.4237848674E-06
        3    17      0.45425110E+02     -0.4237848674E-06
        3    18      0.56930369E+02     -0.9190118482E-09
        3    19      0.77016343E+02     -0.3021279761E-09
        3    20      0.77016343E+02     -0.3021279761E-09
        3    21      0.78184155E+02     -0.5314400809E-10
        3    22      0.95875456E+02     -0.1181855934E-11
        3    23      0.96435163E+02     -0.8652496270E-11
        3    24      0.12837785E+03     -0.1000642364E-17
        4     1      0.49951930E+00      0.0000000000E+00
        4     2      0.49951930E+00      0.0000000000E+00
        4     3      0.94883500E+00     -0.1882676244E-04
        4     4      0.36442958E+01     -0.2299660103E-05
        4     5      0.15206429E+02     -0.1099402006E-03
        4     6      0.15206429E+02     -0.1099402006E-03
        4     7      0.16530642E+02     -0.7810056844E-05
        4     8      0.30385658E+02     -0.2102691882E-05
        4     9      0.30385658E+02     -0.2102691882E-05
        4    10      0.30735616E+02     -0.5951707177E-05
        4    11      0.33083855E+02     -0.4247673861E-05
        4    12      0.33083855E+02     -0.4247673861E-05
        4    13      0.39049181E+02     -0.2443454957E-06
        4    14      0.39049181E+02     -0.2443454957E-06
        4    15      0.39956837E+02     -0.3609762831E-05
        4    16      0.45441183E+02     -0.3607005678E-06
        4    17      0.45441183E+02     -0.3607005678E-06
        4    18      0.56929850E+02     -0.1654257375E-08
        4    19      0.77013695E+02     -0.1398955598E-08
        4    20      0.77013695E+02     -0.1398955598E-08
        4    21      0.78178714E+02     -0.4260124359E-09
        4    22      0.95893436E+02      0.4293607221E-11
        4    23      0.96501467E+02     -0.2053897042E-10
        4    24      0.12838237E+03     -0.1795131212E-17
        5     1      0.66465578E+00     -0.5002970224E-04
        5     2      0.66465578E+00     -0.5002970224E-04
        5     3      0.12661212E+01     -0.1536272894E-04
        5     4      0.36419812E+01     -0.7643533098E-05
        5     5      0.15232356E+02     -0.6679396532E-03
        5     6      0.15232356E+02     -0.6679396532E-03
        5     7      0.16555140E+02     -0.1011643298E-04
        5     8      0.30340150E+02     -0.2900083974E-05
        5     9      0.30340150E+02     -0.2900083974E-05
        5    10      0.30736700E+02     -0.2478891233E-05
        5    11      0.33096879E+02     -0.1418832502E-04
        5    12      0.33096879E+02     -0.1418832502E-04
        5    13      0.39047836E+02     -0.7418243367E-06
        5    14      0.39047836E+02     -0.7418243367E-06
        5    15      0.39987777E+02     -0.6431312153E-05
        5    16      0.45463573E+02     -0.5196023154E-06
        5    17      0.45463573E+02     -0.5196023154E-06
        5    18      0.56929125E+02     -0.8379327074E-08
        5    19      0.77009991E+02     -0.9235415936E-08
        5    20      0.77009991E+02     -0.9235415936E-08
        5    21      0.78171102E+02     -0.5444988742E-07
        5    22      0.95919203E+02      0.1732112248E-10
        5    23      0.96593352E+02     -0.3925254763E-10
        5    24      0.12838870E+03     -0.8761225248E-17
        6     1      0.82863119E+00     -0.7416854070E-04
        6     2      0.82863119E+00     -0.7416854070E-04
        6     3      0.15842405E+01     -0.1635725824E-04
        6     4      0.36390043E+01     -0.1710790246E-04
        6     5      0.15265574E+02     -0.1107174113E-02
        6     6      0.15265574E+02     -0.1107174113E-02
        6     7      0.16586599E+02     -0.5057040915E-05
        6     8      0.30282302E+02     -0.3856269078E-05
        6     9      0.30282302E+02     -0.3856269078E-05
        6    10      0.30738087E+02     -0.6606040376E-05
        6    11      0.33113136E+02     -0.2353821615E-04
        6    12      0.33113136E+02     -0.2353821615E-04
        6    13      0.39046147E+02     -0.1196359278E-05
        6    14      0.39046147E+02     -0.1196359278E-05
        6    15      0.40027224E+02     -0.1313484403E-04
        6    16      0.45492170E+02     -0.7502311300E-06
        6    17      0.45492170E+02     -0.7502311300E-06
        6    18      0.56928194E+02     -0.1164581382E-07
        6    19      0.77005235E+02     -0.1451289436E-07
        6    20      0.77005235E+02     -0.1451289436E-07
        6    21      0.78161321E+02     -0.8266882868E-07
        6    22      0.95953040E+02      0.2514355983E-10
        6    23      0.96710190E+02     -0.7739434911E-10
        6    24      0.12839685E+03     -0.1120054050E-16
        7     1      0.99117153E+00      0.1535968068E-04
        7     2      0.99117153E+00      0.1535968068E-04
        7     3      0.19033636E+01      0.3987323930E-04
        7     4      0.36353645E+01     -0.6709256807E-05
        7     5      0.15305995E+02     -0.1624455764E-02
        7     6      0.15305995E+02     -0.1624455764E-02
        7     7      0.16624992E+02      0.1133729570E-04
        7     8      0.30212546E+02     -0.2286412325E-05
        7     9      0.30212546E+02     -0.2286412325E-05
        7    10      0.30739772E+02      0.1351413507E-04
        7    11      0.33132319E+02     -0.2878714422E-04
        7    12      0.33132319E+02     -0.2878714422E-04
        7    13      0.39044144E+02     -0.1184592676E-05
        7    14      0.39044144E+02     -0.1184592676E-05
        7    15      0.40074933E+02     -0.1311341708E-04
        7    16      0.45526836E+02     -0.2656202850E-06
        7    17      0.45526836E+02     -0.2656202850E-06
        7    18      0.56927057E+02     -0.1283885471E-07
        7    19      0.76999432E+02     -0.2031528475E-07
        7    20      0.76999432E+02     -0.2031528475E-07
        7    21      0.78149376E+02     -0.1143341521E-06
        7    22      0.95995088E+02      0.1370710056E-09
        7    23      0.96851402E+02     -0.9093553181E-10
        7    24      0.12840682E+03      0.3455476440E-16
        8     1      0.11520133E+01      0.7162992193E-04
        8     2      0.11520133E+01      0.7162992193E-04
        8     3      0.22236376E+01      0.1146824134E-03
        8     4      0.36310608E+01      0.7082239094E-05
        8     5      0.15353513E+02     -0.2276793442E-02
        8     6      0.15353513E+02     -0.2276793442E-02
        8     7      0.16670281E+02      0.3618505133E-04
        8     8      0.30131356E+02     -0.2918982855E-05
        8     9      0.30131356E+02     -0.2918982855E-05
        8    10      0.30741749E+02      0.3174298509E-04
        8    11      0.33154108E+02     -0.3677707266E-04
        8    12      0.33154108E+02     -0.3677707266E-04
        8    13      0.39041859E+02     -0.1303175883E-05
        8    14      0.39041859E+02     -0.1303175883E-05
        8    15      0.40130615E+02     -0.5967294398E-05
        8    16      0.45567406E+02     -0.3100962216E-06
        8    17      0.45567406E+02     -0.3100962216E-06
        8    18      0.56925716E+02     -0.6018918860E-08
        8    19      0.76992586E+02     -0.2712065183E-07
        8    20      0.76992586E+02     -0.2712065183E-07
        8    21      0.78135275E+02     -0.1455868454E-06
        8    22      0.96045348E+02      0.2275412310E-09
        8    23      0.97016453E+02     -0.6855681732E-10
        8    24      0.12841861E+03      0.6852809883E-16
        9     1      0.13109053E+01      0.1868890036E-03
        9     2      0.13109053E+01      0.1868890036E-03
        9     3      0.25451826E+01      0.1937294957E-03
        9     4      0.36260922E+01      0.1471988563E-04
        9     5      0.15408000E+02     -0.3110163413E-02
        9     6      0.15408000E+02     -0.3110163413E-02
        9     7      0.16722424E+02      0.6485131340E-04
        9     8      0.30039223E+02     -0.1409732958E-05
        9     9      0.30039223E+02     -0.1409732958E-05
        9    10      0.30744011E+02      0.8875080745E-04
        9    11      0.33178187E+02     -0.3813217142E-04
        9    12      0.33178187E+02     -0.3813217142E-04
        9    13      0.39039333E+02     -0.4404401310E-06
        9    14      0.39039333E+02     -0.4404401310E-06
        9    15      0.40193935E+02     -0.9479479251E-05
        9    16      0.45613693E+02     -0.2891859908E-06
        9    17      0.45613693E+02     -0.2891859908E-06
        9    18      0.56924172E+02      0.4433573417E-08
        9    19      0.76984706E+02     -0.3444067944E-07
        9    20      0.76984706E+02     -0.3444067944E-07
        9    21      0.78119025E+02     -0.1864645911E-06
        9    22      0.96103714E+02      0.3491873151E-09
        9    23      0.97204829E+02     -0.9353058994E-10
        9    24      0.12843225E+03      0.1317087454E-15
       10     1      0.14676102E+01      0.2651483596E-03
       10     2      0.14676102E+01      0.2651483596E-03
       10     3      0.28680888E+01      0.2327968128E-03
       10     4      0.36204575E+01      0.2994821464E-04
       10     5      0.15469307E+02     -0.4034812872E-02
       10     6      0.15469307E+02     -0.4034812872E-02
       10     7      0.16781367E+02      0.9876117135E-04
       10     8      0.29936641E+02     -0.1554100258E-05
       10     9      0.29936641E+02     -0.1554100258E-05
       10    10      0.30746550E+02      0.1349710257E-03
       10    11      0.33204255E+02     -0.4423237108E-04
       10    12      0.33204255E+02     -0.4423237108E-04
       10    13      0.39036605E+02      0.2937174422E-08
       10    14      0.39036605E+02      0.2937174422E-08
       10    15      0.40264521E+02     -0.1380683011E-04
       10    16      0.45665490E+02     -0.3804796669E-06
       10    17      0.45665490E+02     -0.3804796669E-06
       10    18      0.56922426E+02      0.1526079993E-07
       10    19      0.76975798E+02     -0.4262782253E-07
       10    20      0.76975798E+02     -0.4262782253E-07
       10    21      0.78100634E+02     -0.2272341211E-06
       10    22      0.96170000E+02      0.4553979560E-09
       10    23      0.97416003E+02     -0.1070363349E-09
       10    24      0.12844772E+03      0.2017290814E-15
       11     1      0.16219060E+01      0.3102889978E-03
       11     2      0.16219060E+01      0.3102889978E-03
       11     3      0.31924144E+01      0.2710470144E-03
       11     4      0.36141556E+01      0.3651539044E-04
       11     5      0.15537267E+02     -0.6245409554E-02
       11     6      0.15537267E+02     -0.6245409554E-02
       11     7      0.16847051E+02      0.1318318662E-03
       11     8      0.29824097E+02     -0.3299615062E-05
       11     9      0.29824097E+02     -0.3299615062E-05
       11    10      0.30749357E+02      0.1875126374E-03
       11    11      0.33232042E+02     -0.6344878683E-04
       11    12      0.33232042E+02     -0.6344878683E-04
       11    13      0.39033723E+02     -0.1421771292E-06
       11    14      0.39033723E+02     -0.1421771292E-06
       11    15      0.40341966E+02     -0.2717473170E-04
       11    16      0.45722572E+02     -0.5887347301E-06
       11    17      0.45722572E+02     -0.5887347301E-06
       11    18      0.56920479E+02      0.1930720116E-07
       11    19      0.76965872E+02     -0.6418365114E-07
       11    20      0.76965872E+02     -0.6418365114E-07
       11    21      0.78080113E+02     -0.2790461879E-06
       11    22      0.96243969E+02      0.5529884512E-09
       11    23      0.97649421E+02     -0.1528287654E-09
       11    24      0.12846505E+03      0.2911023831E-15
       12     1      0.17735871E+01      0.4921623816E-03
       12     2      0.17735871E+01      0.4921623816E-03
       12     3      0.35181846E+01      0.3422473943E-03
       12     4      0.36071849E+01      0.8287035754E-04
       12     5      0.15611693E+02     -0.7628339275E-02
       12     6      0.15611693E+02     -0.7628339275E-02
       12     7      0.16919408E+02      0.2117953121E-03
       12     8      0.29702061E+02     -0.1425145688E-06
       12     9      0.29702061E+02     -0.1425145688E-06
       12    10      0.30752421E+02      0.2891937955E-03
       12    11      0.33261309E+02     -0.6442826063E-04
       12    12      0.33261309E+02     -0.6442826063E-04
       12    13      0.39030732E+02      0.1538808442E-05
       12    14      0.39030732E+02      0.1538808442E-05
       12    15      0.40425832E+02     -0.2732588801E-04
       12    16      0.45784699E+02     -0.2976278805E-06
       12    17      0.45784699E+02     -0.2976278805E-06
       12    18      0.56918334E+02      0.1132170163E-06
       12    19      0.76954936E+02     -0.7558260371E-07
       12    20      0.76954936E+02     -0.7558260371E-07
       12    21      0.78057471E+02     -0.3245999392E-06
       12    22      0.96325346E+02      0.7827901618E-09
       12    23      0.97904482E+02     -0.1430020995E-09
       12    24      0.12848424E+03      0.5940190847E-15
       13     1      0.19224654E+01      0.8397665230E-03
       13     2      0.19224654E+01      0.8397665230E-03
       13     3      0.35995440E+01      0.1411877632E-03
       13     4      0.38453904E+01      0.4163138047E-03
       13     5      0.15692376E+02     -0.9208405681E-02
       13     6      0.15692376E+02     -0.9208405681E-02
       13     7      0.16998362E+02      0.3075198108E-03
       13     8      0.29570984E+02      0.7129343103E-08
       13     9      0.29570984E+02      0.7129343103E-08
       13    10      0.30755733E+02      0.5678801098E-03
       13    11      0.33291851E+02     -0.5688091619E-04
       13    12      0.33291851E+02     -0.5688091619E-04
       13    13      0.39027682E+02      0.4158589627E-05
       13    14      0.39027682E+02      0.4158589627E-05
       13    15      0.40515660E+02     -0.2976140666E-04
       13    16      0.45851621E+02     -0.1832878987E-06
       13    17      0.45851621E+02     -0.1832878987E-06
       13    18      0.56915991E+02      0.1615339037E-06
       13    19      0.76943002E+02     -0.8552276210E-07
       13    20      0.76943002E+02     -0.8552276210E-07
       13    21      0.78032723E+02     -0.3702080698E-06
       13    22      0.96413831E+02      0.1000909190E-08
       13    23      0.98180538E+02     -0.1279978790E-09
       13    24      0.12850531E+03      0.8554109648E-15
       14     1      0.20683710E+01      0.1164093620E-02
       14     2      0.20683710E+01      0.1164093620E-02
       14     3      0.35912314E+01      0.2592221525E-03
       14     4      0.41739885E+01      0.5395071213E-03
       14     5      0.15779087E+02     -0.1085803814E-01
       14     6      0.15779087E+02     -0.1085803814E-01
       14     7      0.17083826E+02      0.4380771713E-03
       14     8      0.29431294E+02      0.7298545573E-05
       14     9      0.29431294E+02      0.7298545573E-05
       14    10      0.30759279E+02      0.8456125146E-03
       14    11      0.33323497E+02     -0.2679549957E-04
       14    12      0.33323497E+02     -0.2679549957E-04
       14    13      0.39024621E+02      0.1016580938E-04
       14    14      0.39024621E+02      0.1016580938E-04
       14    15      0.40610967E+02     -0.2934880679E-04
       14    16      0.45923079E+02      0.6374978982E-06
       14    17      0.45923079E+02      0.6374978982E-06
       14    18      0.56913454E+02      0.6315819786E-06
       14    19      0.76930082E+02     -0.9613813595E-07
       14    20      0.76930082E+02     -0.9613813595E-07
       14    21      0.78005881E+02     -0.4112287263E-06
       14    22      0.96509106E+02      0.1489381051E-08
       14    23      0.98476886E+02     -0.1163836057E-09
       14    24      0.12852825E+03      0.1273850716E-14
       15     1      0.22111527E+01      0.1337866447E-02
       15     2      0.22111527E+01      0.1337866447E-02
       15     3      0.35822452E+01      0.3771665622E-03
       15     4      0.45039025E+01      0.6430449577E-03
       15     5      0.15871578E+02     -0.1274203849E-01
       15     6      0.15871578E+02     -0.1274203849E-01
       15     7      0.17175708E+02      0.5707647259E-03
       15     8      0.29283402E+02      0.1021574392E-04
       15     9      0.29283402E+02      0.1021574392E-04
       15    10      0.30763047E+02      0.1063753141E-02
       15    11      0.33356107E+02     -0.9085550362E-05
       15    12      0.33356107E+02     -0.9085550362E-05
       15    13      0.39021600E+02      0.1531516518E-04
       15    14      0.39021600E+02      0.1531516518E-04
       15    15      0.40711259E+02     -0.2362613840E-04
       15    16      0.45998807E+02      0.1003219511E-05
       15    17      0.45998807E+02      0.1003219511E-05
       15    18      0.56910724E+02      0.9462807088E-06
       15    19      0.76916187E+02     -0.1060312671E-06
       15    20      0.76916187E+02     -0.1060312671E-06
       15    21      0.77976961E+02     -0.4177101528E-06
       15    22      0.96610836E+02      0.1840954601E-08
       15    23      0.98792776E+02     -0.8443629286E-10
       15    24      0.12855308E+03      0.1963257266E-14
       16     1      0.23506782E+01      0.1497027920E-02
       16     2      0.23506782E+01      0.1497027920E-02
       16     3      0.35725838E+01      0.4343536640E-03
       16     4      0.48350230E+01      0.7446316167E-03
       16     5      0.15969581E+02     -0.1622584382E-01
       16     6      0.15969581E+02     -0.1622584382E-01
       16     7      0.17273908E+02      0.6704373304E-03
       16     8      0.29127695E+02      0.9610781831E-05
       16     9      0.29127695E+02      0.9610781831E-05
       16    10      0.30767024E+02      0.1323085236E-02
       16    11      0.33389570E+02     -0.1275603938E-04
       16    12      0.33389570E+02     -0.1275603938E-04
       16    13      0.39018670E+02      0.1955084841E-04
       16    14      0.39018670E+02      0.1955084841E-04
       16    15      0.40816030E+02     -0.1941962339E-06
       16    16      0.46078537E+02      0.1361221908E-05
       16    17      0.46078537E+02      0.1361221908E-05
       16    18      0.56907804E+02      0.1185275721E-05
       16    19      0.76901332E+02     -0.1310525395E-06
       16    20      0.76901332E+02     -0.1310525395E-06
       16    21      0.77945979E+02     -0.4542796612E-06
       16    22      0.96718675E+02      0.2078928547E-08
       16    23      0.99127406E+02      0.3648384447E-10
       16    24      0.12857981E+03      0.2570180980E-14
       17     1      0.24868340E+01      0.1904415835E-02
       17     2      0.24868340E+01      0.1904415835E-02
       17     3      0.35622454E+01      0.7276022939E-03
       17     4      0.51672103E+01      0.8690856145E-03
       17     5      0.16072808E+02     -0.1844447877E-01
       17     6      0.16072808E+02     -0.1844447877E-01
       17     7      0.17378316E+02      0.7804986519E-03
       17     8      0.28964545E+02      0.8808961415E-05
       17     9      0.28964545E+02      0.8808961415E-05
       17    10      0.30771195E+02      0.1671504439E-02
       17    11      0.33423800E+02      0.4803953792E-04
       17    12      0.33423800E+02      0.4803953792E-04
       17    13      0.39015881E+02      0.2985354331E-04
       17    14      0.39015881E+02      0.2985354331E-04
       17    15      0.40924768E+02      0.2256572254E-05
       17    16      0.46162001E+02      0.2006952415E-05
       17    17      0.46162001E+02      0.2006952415E-05
       17    18      0.56904696E+02      0.2121536951E-05
       17    19      0.76885532E+02     -0.1398239502E-06
       17    20      0.76885532E+02     -0.1398239502E-06
       17    21      0.77912952E+02     -0.4831965586E-06
       17    22      0.96832263E+02      0.2493022094E-08
       17    23      0.99479932E+02      0.8139202223E-10
       17    24      0.12860845E+03      0.3544297849E-14
       18     1      0.26195256E+01      0.2350256049E-02
       18     2      0.26195256E+01      0.2350256049E-02
       18     3      0.35512281E+01      0.9374577395E-03
       18     4      0.55002956E+01      0.9964469469E-03
       18     5      0.16180951E+02     -0.2344019977E-01
       18     6      0.16180951E+02     -0.2344019977E-01
       18     7      0.17488819E+02      0.9203931788E-03
       18     8      0.28794311E+02     -0.4201686803E-04
       18     9      0.28794311E+02     -0.4201686803E-04
       18    10      0.30775546E+02      0.2477092730E-02
       18    11      0.33458728E+02      0.4603163991E-04
       18    12      0.33458728E+02      0.4603163991E-04
       18    13      0.39013281E+02      0.3627058996E-04
       18    14      0.39013281E+02      0.3627058996E-04
       18    15      0.41036962E+02      0.7431726807E-04
       18    16      0.46248931E+02      0.2332810135E-05
       18    17      0.46248931E+02      0.2332810135E-05
       18    18      0.56901403E+02      0.2573905831E-05
       18    19      0.76868801E+02     -0.1936751698E-06
       18    20      0.76868801E+02     -0.1936751698E-06
       18    21      0.77877900E+02     -0.6504424830E-06
       18    22      0.96951234E+02      0.2942159818E-08
       18    23      0.99849466E+02      0.3621852168E-09
       18    24      0.12863901E+03      0.4385099851E-14
       19     1      0.27486765E+01      0.2465088295E-02
       19     2      0.27486765E+01      0.2465088295E-02
       19     3      0.35395300E+01      0.1090819045E-02
       19     4      0.58340838E+01      0.1052187511E-02
       19     5      0.16293685E+02     -0.2658139524E-01
       19     6      0.16293685E+02     -0.2658139524E-01
       19     7      0.17605293E+02      0.9662936528E-03
       19     8      0.28617338E+02     -0.5851556379E-04
       19     9      0.28617338E+02     -0.5851556379E-04
       19    10      0.30780060E+02      0.2893741946E-02
       19    11      0.33494305E+02      0.9176860447E-04
       19    12      0.33494305E+02      0.9176860447E-04
       19    13      0.39010921E+02      0.4573854760E-04
       19    14      0.39010921E+02      0.4573854760E-04
       19    15      0.41152100E+02      0.4827474045E-04
       19    16      0.46339060E+02      0.2714072048E-05
       19    17      0.46339060E+02      0.2714072048E-05
       19    18      0.56897928E+02      0.3064251095E-05
       19    19      0.76851157E+02     -0.2059413470E-06
       19    20      0.76851157E+02     -0.2059413470E-06
       19    21      0.77840843E+02     -0.7030713014E-06
       19    22      0.97075211E+02      0.3158673717E-08
       19    23      0.10023509E+03      0.3690810936E-09
       19    24      0.12867148E+03      0.5397018916E-14
       20     1      0.28742279E+01      0.2546560561E-02
       20     2      0.28742279E+01      0.2546560561E-02
       20     3      0.35271494E+01      0.1269608687E-02
       20     4      0.61683562E+01      0.1098386612E-02
       20     5      0.16410665E+02     -0.2968390089E-01
       20     6      0.16410665E+02     -0.2968390089E-01
       20     7      0.17727614E+02      0.9937937208E-03
       20     8      0.28433961E+02     -0.7693375799E-04
       20     9      0.28433961E+02     -0.7693375799E-04
       20    10      0.30784721E+02      0.3364878924E-02
       20    11      0.33530496E+02      0.1466583684E-03
       20    12      0.33530496E+02      0.1466583684E-03
       20    13      0.39008850E+02      0.5691405131E-04
       20    14      0.39008850E+02      0.5691405131E-04
       20    15      0.41269679E+02      0.2761721601E-04
       20    16      0.46432129E+02      0.3383871246E-05
       20    17      0.46432129E+02      0.3383871246E-05
       20    18      0.56894273E+02      0.3615827633E-05
       20    19      0.76832616E+02     -0.2152294200E-06
       20    20      0.76832616E+02     -0.2152294200E-06
       20    21      0.77801804E+02     -0.7296392210E-06
       20    22      0.97203813E+02      0.3356986506E-08
       20    23      0.10063584E+03      0.3947964604E-09
       20    24      0.12870588E+03      0.6565241482E-14
       21     1      0.29961382E+01      0.2604867732E-02
       21     2      0.29961382E+01      0.2604867732E-02
       21     3      0.35140842E+01      0.1543490652E-02
       21     4      0.65028734E+01      0.1214200296E-02
       21     5      0.16531528E+02     -0.3277785899E-01
       21     6      0.16531528E+02     -0.3277785899E-01
       21     7      0.17855648E+02      0.1065512227E-02
       21     8      0.28244511E+02     -0.1575464685E-03
       21     9      0.28244511E+02     -0.1575464685E-03
       21    10      0.30789512E+02      0.3856866035E-02
       21    11      0.33567274E+02      0.2386138987E-03
       21    12      0.33567274E+02      0.2386138987E-03
       21    13      0.39007114E+02      0.6987851595E-04
       21    14      0.39007114E+02      0.6987851595E-04
       21    15      0.41389202E+02      0.2671375541E-04
       21    16      0.46527882E+02      0.4511211778E-05
       21    17      0.46527882E+02      0.4511211778E-05
       21    18      0.56890443E+02      0.4448901038E-05
       21    19      0.76813197E+02     -0.2291967085E-06
       21    20      0.76813197E+02     -0.2291967085E-06
       21    21      0.77760807E+02     -0.1136794315E-05
       21    22      0.97336650E+02      0.3876997351E-08
       21    23      0.10105075E+03      0.4524084151E-09
       21    24      0.12874221E+03      0.8817831007E-14
       22     1      0.31143813E+01      0.2613177854E-02
       22     2      0.31143813E+01      0.2613177854E-02
       22     3      0.35003328E+01      0.1769550353E-02
       22     4      0.68373781E+01      0.1262613045E-02
       22     5      0.16655891E+02     -0.3583388982E-01
       22     6      0.16655891E+02     -0.3583388982E-01
       22     7      0.17989261E+02      0.1057024900E-02
       22     8      0.28049312E+02     -0.1868737290E-03
       22     9      0.28049312E+02     -0.1868737290E-03
       22    10      0.30794416E+02      0.4423544484E-02
       22    11      0.33604622E+02      0.3212885996E-03