
&CONTROL
    calculation   = 'vc-relax'
    restart_mode  = 'from_scratch'
    prefix        = 'Landau_17'
    pseudo_dir    = '/cluster/scratch/mnoe/QE/pps'
    outdir        = './'
    forc_conv_thr = 1.0d-7
    etot_conv_thr = 1.0d-7

/
&SYSTEM
    ibrav       = 0
    nat         = 32
    ntyp        = 2
    ecutwfc     = 120
    occupations = 'smearing'
    degauss     = 7.35d-4
    tot_charge  = -0.0
/
&ELECTRONS
    conv_thr    = 1.0d-8
    diagonalization = 'david'
/


&IONS
ion_dynamics = 'bfgs'
/

&CELL
cell_dynamics = 'bfgs'
cell_dofree = 'all'
/
CELL_PARAMETERS angstrom
        7.3236460686         0.0000000000         0.0000000000
        0.0000000000         7.3236460686         0.0000000000
        0.0000000000         0.0000000000         7.7495899200

ATOMIC_SPECIES
W 183.84 W_ONCV_LDA-4.0.upf
O 15.9994 O_ONCV_LDA-3.0.upf

ATOMIC_POSITIONS crystal
W 0.242630007         0.242249999         0.218119991 0 0 0
W 0.757369993         0.757750017         0.218119991 0 0 0
W 0.242249999         0.757369993         0.781880024 0 0 0
W 0.757750017         0.242630007         0.781880024 0 0 0
W 0.257369993         0.742249950         0.281880024 0 0 0
W 0.742629975         0.257750001         0.281880024 0 0 0
W 0.257750001         0.257369993         0.718119976 0 0 0
W 0.742249950         0.742629975         0.718119976 0 0 0
O 0.234290011         0.234369991         0.491670026 0 0 0
O 0.765710022         0.765629993         0.491670026 0 0 0
O 0.234369991         0.765710022         0.508329974 0 0 0
O 0.765629993         0.234290011         0.508329974 0 0 0
O 0.265709989         0.734369975         0.008329987 0 0 0
O 0.734290011         0.265630009         0.008329987 0 0 0
O 0.265630009         0.265709989         0.991670026 0 0 0
O 0.734369975         0.734290011         0.991670026 0 0 0
O 0.199410008         0.497860017         0.263279995 0 0 0
O 0.800589976         0.502139983         0.263279995 0 0 0
O 0.497860017         0.800589976         0.736719974 0 0 0
O 0.502139983         0.199410008         0.736719974 0 0 0
O 0.300589976         0.997859985         0.236719989 0 0 0
O 0.699409992         0.002139986         0.236719989 0 0 0
O 0.002139986         0.300589976         0.763280026 0 0 0
O 0.997859985         0.699409992         0.763280026 0 0 0
O 0.996730004         0.199410008         0.231240007 0 0 0
O 0.003269971         0.800589976         0.231240007 0 0 0
O 0.199410008         0.003269971         0.768759977 0 0 0
O 0.800589976         0.996730004         0.768759977 0 0 0
O 0.503269963         0.699409992         0.268760008 0 0 0
O 0.496730102         0.300589976         0.268760008 0 0 0
O 0.300589976         0.503269963         0.731240023 0 0 0
O 0.699409992         0.496730102         0.731240023 0 0 0

K_POINTS automatic
6 6 6 0 0 0
