&CONTROL
    calculation   = 'scf'
    restart_mode  = 'from_scratch'
    prefix        = 'Landau_30'
    pseudo_dir    = '/cluster/scratch/mnoe/QE/pps'
    outdir        = './'
/
&SYSTEM
    ibrav       = 0
    nat         = 16
    ntyp        = 2
    ecutwfc     = 120
    occupations = 'smearing'
    degauss     = 7.35d-4
    tot_charge  = -0.34
/
&ELECTRONS
    conv_thr    = 1.0d-8
    diagonalization = 'david'
/

CELL_PARAMETERS angstrom
   5.250731440   0.000000000   0.000000000
   0.000000000   5.250731440   0.000000000
   0.000000000   0.000000000   7.633029052

ATOMIC_SPECIES
W 183.84 W_ONCV_LDA-4.0.upf
O 15.9994 O_ONCV_LDA-3.0.upf

ATOMIC_POSITIONS crystal
W       0.24999999999992356	0.24999999999986386	0.20793510216423233	
W       0.750000022999933	0.7500000229999747	0.7920649128328674	
W       0.7500000230000223	0.750000023000058	0.29206491283576597	
W       0.2499999999999096	0.250000000000043	0.7079350871671328	
O      0.2499999999996754	0.2499999999998972	0.47239601812195636	
O      0.750000022999991	0.750000023000387	0.5276039818825023	
O      0.7500000229998462	0.7500000230000227	0.02760399487804977	
O      0.24999999999972228	0.25000000000006456	0.9723960181174875	
O       0.5020723732347598	0.49792758076515353	0.25000000000005024	
O       0.4979276267972622	0.502072419202774	0.7499999999999983	
O       -0.002072390234439711	1.002072419234274	0.2500000000000049	
O       1.0020723272031757	-0.0020723562030556114	0.750000000000245	
O       1.0020724192344674	0.5020723732344229	0.2500000000001884	
O       -0.002072356202761534	0.4979276267972337	0.7499999999999704	
O       0.4979275807653892	-0.002072390234550206	0.2499999999998578	
O       0.5020724192031965	1.0020723272031178	0.7499999999996941	

K_POINTS automatic
9 9 6 0 0 0
