&CONTROL
    calculation   = 'scf'
    restart_mode  = 'from_scratch'
    prefix        = 'Landau_33'
    pseudo_dir    = '/cluster/scratch/mnoe/QE/pps'
    outdir        = './'
/
&SYSTEM
    ibrav       = 0
    nat         = 32
    ntyp        = 2
    ecutwfc     = 120
    occupations = 'smearing'
    degauss     = 7.35d-4
    tot_charge  = -0.84
/
&ELECTRONS
    conv_thr    = 1.0d-8
    diagonalization = 'david'
/

CELL_PARAMETERS angstrom
   7.314874838   0.000000000   0.000000000
   0.000000000   7.648357655   0.000000000
   0.000000000   0.000000000   7.356647275

ATOMIC_SPECIES
W 183.84 W_ONCV_LDA-4.0.upf
O 15.9994 O_ONCV_LDA-3.0.upf

ATOMIC_POSITIONS crystal
W         0.234740001         0.281860003         0.014410001
W         0.765259950         0.718139997         0.985589955
W         0.265259983         0.218140012         0.514410012
W         0.734740050         0.781859972         0.485590021
W         0.765259950         0.281860003         0.485590021
W         0.234740001         0.718139997         0.514410012
W         0.734740050         0.218140012         0.985589955
W         0.265259983         0.781859972         0.014410001
O         0.221849994         0.008320000         0.004480000
O         0.778150023         0.991680023         0.995519976
O         0.278150023         0.491679992         0.504479992
O         0.721849977         0.508319977         0.495520008
O         0.778150023         0.008320000         0.495520008
O         0.221849994         0.991680023         0.504479992
O         0.721849977         0.491679992         0.995519976
O         0.278150023         0.508319977         0.004480000
O         0.504169994         0.221119994         0.449540004
O         0.495830006         0.778880021         0.550459963
O         0.995829974         0.278879990         0.949540037
O         0.004169941         0.721120010         0.050460012
O         0.495830006         0.221119994         0.050460012
O         0.504169994         0.778880021         0.949540037
O         0.004169941         0.278879990         0.550459963
O         0.995829974         0.721120010         0.449540004
O         0.699540037         0.243689993         0.743670017
O         0.300459996         0.756310007         0.256330016
O         0.800459963         0.256309991         0.243669984
O         0.199540020         0.743690024         0.756329983
O         0.300459996         0.243689993         0.756329983
O         0.699540037         0.756310007         0.243669984
O         0.199540020         0.256309991         0.256330016
O         0.800459963         0.743690024         0.743670017

K_POINTS automatic
6 6 6 0 0 0
