&CONTROL
    calculation   = 'scf'
    restart_mode  = 'from_scratch'
    prefix        = 'Landau_9'
    pseudo_dir    = '/cluster/scratch/mnoe/QE/pps'
    outdir        = './'
/
&SYSTEM
    ibrav       = 0
    nat         = 32
    ntyp        = 2
    ecutwfc     = 120
    occupations = 'smearing'
    degauss     = 7.35d-4
    tot_charge  = -0.2
/
&ELECTRONS
    conv_thr    = 1.0d-8
    diagonalization = 'david'
/

CELL_PARAMETERS angstrom
   7.431991928   0.000000000   0.000000000
   0.000000000   7.658111674   0.000000000
   0.000000000   0.000000000   7.429253664

ATOMIC_SPECIES
W 183.84 W_ONCV_LDA-4.0.upf
O 15.9994 O_ONCV_LDA-3.0.upf

ATOMIC_POSITIONS crystal
W 0.2432111273213954	0.2748849762553339	-0.0030254845036597686	
W 0.7473679149224569	0.7251150237446661	-0.006950866200787612	
W 0.25678887267860456	0.22511504106196834	0.49697451203607035	
W 0.7526320171253909	0.7748850170917064	0.4930491255080463	
W 0.7567888309955638	0.2748849762553339	0.5030254879639297	
W 0.2526320549886532	0.7251150237446661	0.5069508744919538	
W 0.7432111010522839	0.22511504106196834	0.0030254870876275162	
W 0.24736794501134682	0.7748850170917064	0.00695086878475536	
O 0.24470151460090123	0.006419795860296165	-0.008592469497670644	
O 0.7523702418459361	-0.0064198215236452895	-0.009812552449308367	
O 0.2552984747037192	0.4935802193127273	0.49140751868348553	
O 0.7476296821129691	0.5064198215236453	0.49018743865285486	
O 0.7552984409298666	0.006419795860296165	0.5085924819231852	
O 0.24762970667441492	-0.0064198215236452895	0.5098125619538159	
O 0.7447014830290386	0.4935802193127273	0.00859246871124568	
O 0.2523702826302055	0.5064198215236453	0.009812551662883402	
O 0.5026365430036013	0.24400676831409177	0.4665953167782595	
O 0.5014995953946447	0.7518732901907745	0.5334047266927175	
O -0.002636529184991094	0.25599322831551546	0.9665953497782596	
O -0.0014995834859237852	0.7481267725165976	0.03340463433727495	
O 0.4973634569963987	0.24400676831409177	0.03340463433727495	
O 0.4985004046053553	0.7518732901907745	0.9665953497782596	
O 0.0026365373862800544	0.25599322831551546	0.5334047266927175	
O 0.0014995916872127457	0.7481267725165976	0.4665953167782595	
O 0.7165953103841198	0.2585814611209634	0.7505026134521126	
O 0.28340464614490296	0.7602981510919881	0.2522260326303824	
O 0.783404763769555	0.24141853079009407	0.2505026489336308	
O 0.21659533277825951	0.7397019114580992	0.7522260044513818	
O 0.28340464614490296	0.2585814611209634	0.7494973347736202	
O 0.7165953103841198	0.7602981510919881	0.2477739746721352	
O 0.21659533277825951	0.24141853079009407	0.24949735836888678	
O 0.783404763769555	0.7397019114580992	0.747773943774351	

K_POINTS automatic
6 6 6 0 0 0
