
&CONTROL
    calculation   = 'vc-relax'
    restart_mode  = 'from_scratch'
    prefix        = 'Landau_9'
    pseudo_dir    = '/cluster/scratch/mnoe/QE/pps'
    outdir        = './'
    forc_conv_thr = 1.0d-7
    etot_conv_thr = 1.0d-7

/
&SYSTEM
    ibrav       = 0
    nat         = 32
    ntyp        = 2
    ecutwfc     = 120
    occupations = 'smearing'
    degauss     = 7.35d-4
    tot_charge  = -0.0
/
&ELECTRONS
    conv_thr    = 1.0d-8
    diagonalization = 'david'
/


&IONS
ion_dynamics = 'bfgs'
/

&CELL
cell_dynamics = 'bfgs'
cell_dofree = 'all'
/
CELL_PARAMETERS angstrom
        7.3236460686         0.0000000000         0.0000000000
        0.0000000000         7.7495899200         0.0000000000
        0.0000000000         0.0000000000         7.3236460686

ATOMIC_SPECIES
W 183.84 W_ONCV_LDA-4.0.upf
O 15.9994 O_ONCV_LDA-3.0.upf

ATOMIC_POSITIONS crystal
W 0.25	0.28060543347306255	0.0	 0 0 0
W 0.749999993331141	0.7193945665269375	0.0	 0 0 0
W 0.25	0.21939458194374112	0.5	 0 0 0
W 0.749999993331141	0.780605415393977	0.5	 0 0 0
W 0.749999993331141	0.28060543347306255	0.5	 0 0 0
W 0.25	0.7193945665269375	0.5	 0 0 0
W 0.749999993331141	0.21939458194374112	0.0	 0 0 0
W 0.25	0.780605415393977	0.0	 0 0 0
O 0.25	0.007978218054797299	0.0	 0 0 0
O 0.749999993331141	0.9920217961923252	0.0	 0 0 0
O 0.25	0.49202177811323966	0.5	 0 0 0
O 0.749999993331141	0.5079782038076748	0.5	 0 0 0
O 0.749999993331141	0.007978218054797299	0.5	 0 0 0
O 0.25	0.9920217961923252	0.5	 0 0 0
O 0.749999993331141	0.49202177811323966	0.0	 0 0 0
O 0.25	0.5079782038076748	0.0	 0 0 0
O 0.5	0.25	0.4526076733390967	 0 0 0
O 0.5	0.7499999912520554	0.5473923074154251	 0 0 0
O 0.0	0.25	0.9526077063390966	 0 0 0
O 0.0	0.7499999912520554	0.04739233099039994	 0 0 0
O 0.5	0.25	0.04739233099039994	 0 0 0
O 0.5	0.7499999912520554	0.9526077063390966	 0 0 0
O 0.0	0.25	0.5473923074154251	 0 0 0
O 0.0	0.7499999912520554	0.4526076733390967	 0 0 0
O 0.7026076992534339	0.25	0.749999993331141	 0 0 0
O 0.29739231999204424	0.7499999912520554	0.25	 0 0 0
O 0.7973923140842842	0.25	0.25	 0 0 0
O 0.20260768933909667	0.7499999912520554	0.749999993331141	 0 0 0
O 0.29739231999204424	0.25	0.749999993331141	 0 0 0
O 0.7026076992534339	0.7499999912520554	0.25	 0 0 0
O 0.20260768933909667	0.25	0.25	 0 0 0
O 0.7973923140842842	0.7499999912520554	0.749999993331141	 0 0 0

K_POINTS automatic
6 6 6 0 0 0
