
&CONTROL
    calculation   = 'vc-relax'
    restart_mode  = 'from_scratch'
    prefix        = 'Landau_2'
    pseudo_dir    = '/cluster/scratch/mnoe/QE/pps'
    outdir        = './'
    forc_conv_thr = 1.0d-7
    etot_conv_thr = 1.0d-7

/
&SYSTEM
    ibrav       = 0
    nat         = 32
    ntyp        = 2
    ecutwfc     = 120
    occupations = 'smearing'
    degauss     = 7.35d-4
    tot_charge  = -0.0
/
&ELECTRONS
    conv_thr    = 1.0d-8
    diagonalization = 'david'
/


&IONS
ion_dynamics = 'bfgs'
/

&CELL
cell_dynamics = 'bfgs'
cell_dofree = 'all'
/
CELL_PARAMETERS angstrom
        7.3236460686         0.0000000000         0.0000000000
        0.0000000000         7.7495899200         0.0000000000
        0.0000000000         0.0000000000         7.3236460686

ATOMIC_SPECIES
W 183.84 W_ONCV_LDA-4.0.upf
O 15.9994 O_ONCV_LDA-3.0.upf

ATOMIC_POSITIONS crystal
W 0.24713206967936338	0.2810755423073019	0.0006690560948724778	 0 0 0
W 0.7508320657322616	0.7189244576926981	-0.0028249418051275272	 0 0 0
W 0.2528679303206366	0.21892447295331824	0.5006690561043284	 0 0 0
W 0.749167927268041	0.781075519386527	0.4971750539043284	 0 0 0
W 0.752867923868041	0.2810755423073019	0.49933094389567156	 0 0 0
W 0.2491679303206366	0.7189244576926981	0.5028249460956715	 0 0 0
W 0.7471320691322616	0.21892447295331824	-0.0006690537948724836	 0 0 0
W 0.2508320696793634	0.781075519386527	0.0028249441051275215	 0 0 0
O 0.24627060686907504	0.008106289642998173	-0.0014456607511486985	 0 0 0
O 0.7530966003991525	-0.008106272116021551	-0.0025316614511486945	 0 0 0
O 0.25372938960810415	0.49189370496320345	0.4985543347260305	 0 0 0
O 0.7469033908531313	0.5081062721160216	0.4974683366260305	 0 0 0
O 0.7537293836531312	0.008106289642998173	0.5014456629062463	 0 0 0
O 0.24690338860810415	-0.008106272116021551	0.5025316610062462	 0 0 0
O 0.7462706075991524	0.49189370496320345	0.0014456600511487025	 0 0 0
O 0.25309660786907506	0.5081062721160216	0.0025316607511486986	 0 0 0
O 0.5009529101527336	0.24605383806697076	0.4514581647420283	 0 0 0
O 0.49994090855273354	0.7530558291502827	0.548541810858437	 0 0 0
O -0.0009529096653592607	0.25394615893302924	0.9514581977420283	 0 0 0
O 5.909023464074068e-05	0.7469441582226273	0.048541843960607116	 0 0 0
O 0.4990470898472664	0.24605383806697076	0.048541843960607116	 0 0 0
O 0.5000590914472665	0.7530558291502827	0.9514581977420283	 0 0 0
O 0.0009529051527335695	0.25394615893302924	0.548541810858437	 0 0 0
O -5.9094747266431825e-05	0.7469441582226273	0.4514581647420283	 0 0 0
O 0.7014581933114856	0.2512759364639009	0.749527832142177	 0 0 0
O 0.29854183108804905	0.7528039321952317	0.2510618315892788	 0 0 0
O 0.7985418150283595	0.24872406178808018	0.24952784088927882	 0 0 0
O 0.20145818074202837	0.7471960552194109	0.751061829342177	 0 0 0
O 0.29854183108804905	0.2512759364639009	0.7504721643541634	 0 0 0
O 0.7014581933114856	0.7528039321952317	0.24893817491072118	 0 0 0
O 0.20145818074202837	0.24872406178808018	0.25047216561072116	 0 0 0
O 0.7985418150283595	0.7471960552194109	0.7489381671541635	 0 0 0

K_POINTS automatic
6 6 6 0 0 0
