
&CONTROL
    calculation   = 'vc-relax'
    restart_mode  = 'from_scratch'
    prefix        = 'Landau_21'
    pseudo_dir    = '/cluster/scratch/mnoe/QE/pps'
    outdir        = './'
    forc_conv_thr = 1.0d-7
    etot_conv_thr = 1.0d-7

/
&SYSTEM
    ibrav       = 0
    nat         = 32
    ntyp        = 2
    ecutwfc     = 120
    occupations = 'smearing'
    degauss     = 7.35d-4
    tot_charge  = -0.0
/
&ELECTRONS
    conv_thr    = 1.0d-8
    diagonalization = 'david'
/


&IONS
ion_dynamics = 'bfgs'
/

&CELL
cell_dynamics = 'bfgs'
cell_dofree = 'all'
/
CELL_PARAMETERS angstrom
        7.3236460686         0.0000000000         0.0000000000
        0.0000000000         7.7495899200         0.0000000000
        0.0000000000         0.0000000000         7.3236460686

ATOMIC_SPECIES
W 183.84 W_ONCV_LDA-4.0.upf
O 15.9994 O_ONCV_LDA-3.0.upf

ATOMIC_POSITIONS crystal
W 0.240290009	0.2855734843742541	0.009170001	 0 0 0
W 0.759710007	0.7144265156257459	0.990830031	 0 0 0
W 0.259710007	0.21442652570504983	0.509170002	 0 0 0
W 0.740289993	0.7855734533742541	0.490829998	 0 0 0
W 0.759710007	0.2855734843742541	0.490829998	 0 0 0
W 0.240290009	0.7144265156257459	0.509170002	 0 0 0
W 0.740289993	0.21442652570504983	0.990830031	 0 0 0
W 0.259710007	0.7855734533742541	0.009170001	 0 0 0
O 0.232080001	0.015346754334898929	0.00285	 0 0 0
O 0.767920032	0.984653277522354	0.997149987	 0 0 0
O 0.267920015	0.48465323635291546	0.50284998	 0 0 0
O 0.732079968	0.5153467428165232	0.49715002	 0 0 0
O 0.767920032	0.015346754334898929	0.49715002	 0 0 0
O 0.232080001	0.984653277522354	0.50284998	 0 0 0
O 0.732079968	0.48465323635291546	0.997149987	 0 0 0
O 0.267920015	0.5153467428165232	0.00285	 0 0 0
O 0.502650022	0.231620002	0.46873401231050893	 0 0 0
O 0.497349978	0.768380013	0.5312659760125074	 0 0 0
O 0.997349946	0.268379982	0.9687340295642815	 0 0 0
O 0.002650022	0.731620018	0.0312660181235329	 0 0 0
O 0.497349978	0.231620002	0.0312660181235329	 0 0 0
O 0.502650022	0.768380013	0.9687340295642815	 0 0 0
O 0.002650022	0.268379982	0.5312659760125074	 0 0 0
O 0.997349946	0.731620018	0.46873401231050893	 0 0 0
O 0.7187340561360404	0.245989997	0.745970029	 0 0 0
O 0.28126600343571856	0.75401005	0.254029987	 0 0 0
O 0.781265965186976	0.254010019	0.245970013	 0 0 0
O 0.21873402863855534	0.745989981	0.754029971	 0 0 0
O 0.28126600343571856	0.245989997	0.754029971	 0 0 0
O 0.7187340561360404	0.75401005	0.245970013	 0 0 0
O 0.21873402863855534	0.254010019	0.254029987	 0 0 0
O 0.781265965186976	0.745989981	0.745970029	 0 0 0

K_POINTS automatic
6 6 6 0 0 0
