&CONTROL
    calculation   = 'scf'
    restart_mode  = 'from_scratch'
    prefix        = 'Landau_20'
    pseudo_dir    = '/cluster/scratch/mnoe/QE/pps'
    outdir        = './'
/
&SYSTEM
    ibrav       = 0
    nat         = 32
    ntyp        = 2
    ecutwfc     = 120
    occupations = 'smearing'
    degauss     = 7.35d-4
    tot_charge  = -0.2
/
&ELECTRONS
    conv_thr    = 1.0d-8
    diagonalization = 'david'
/

CELL_PARAMETERS angstrom
   7.421961266   0.000000000   0.000000000
   0.000000000   7.421493123   0.000000000
   0.000000000   0.000000000   7.421961266

ATOMIC_SPECIES
W 183.84 W_ONCV_LDA-4.0.upf
O 15.9994 O_ONCV_LDA-3.0.upf

ATOMIC_POSITIONS crystal
W 0.21406914798843701	0.2776366887462381	-0.00102886070333906	
W 0.7510288612286173	0.7223633112537619	-0.035930802065995866	
W 0.285930852011563	0.222363327656867	0.49897113230428153	
W 0.7489711168469784	0.777636701242498	0.464069147988437	
W 0.7859308025912742	0.2776366887462381	0.5010288676957184	
W 0.24897113230428156	0.7223633112537619	0.535930852011563	
W 0.7140691754843216	0.222363327656867	0.0010288836782999036	
W 0.25102886769571847	0.777636701242498	0.03593082504095671	
O 0.2104830472752852	0.007169443948812734	-0.028668719595920773	
O 0.7786686901538589	-0.007169450414021035	-0.03951690377805896	
O 0.289516903778059	0.49283056208223885	0.47133122146830997	
O 0.7213312579543967	0.5071694504140211	0.46048306325786664	
O 0.789516874335997	0.007169443948812734	0.5286687615501972	
O 0.2213312054857285	-0.007169450414021035	0.5395169197606404	
O 0.7104830737722585	0.49283056208223885	0.02866871260354141	
O 0.27866874556761567	0.5071694504140211	0.039516896785679594	
O 0.5127161354085236	0.20739643419901632	0.4598668383184309	
O 0.502607136630329	0.7773402404827829	0.5401331749840392	
O -0.012716103443360658	0.2926035358336433	0.9598668713184308	
O -0.002607121646658791	0.7226598924786445	0.040133138394624686	
O 0.4872838645914763	0.20739643419901632	0.040133138394624686	
O 0.497392863369671	0.7773402404827829	0.9598668713184308	
O 0.012716085462956482	0.2926035358336433	0.5401331749840392	
O 0.0026071036662546152	0.7226598924786445	0.4598668383184309	
O 0.7098668474656432	0.27734017450152487	0.7473928738840628	
O 0.29013313923188655	0.7926036327811531	0.2627161354085237	
O 0.7901331974337218	0.22265979553113474	0.24739292829890838	
O 0.20986685431843088	0.7073965001802743	0.7627161459229155	
O 0.29013313923188655	0.27734017450152487	0.7526071641262136	
O 0.7098668474656432	0.7926036327811531	0.23728392952071375	
O 0.20986685431843088	0.22265979553113474	0.252607136630329	
O 0.7901331974337218	0.7073965001802743	0.737283892087361	

K_POINTS automatic
6 6 6 0 0 0
