&CONTROL
    calculation   = 'scf'
    restart_mode  = 'from_scratch'
    prefix        = 'Landau_20'
    pseudo_dir    = '/cluster/scratch/mnoe/QE/pps'
    outdir        = './'
/
&SYSTEM
    ibrav       = 0
    nat         = 32
    ntyp        = 2
    ecutwfc     = 120
    occupations = 'smearing'
    degauss     = 7.35d-4
    tot_charge  = -0.2
/
&ELECTRONS
    conv_thr    = 1.0d-8
    diagonalization = 'david'
/

CELL_PARAMETERS angstrom
   7.419467596   0.000000000   0.000000000
   0.000000000   7.480958435   0.000000000
   0.000000000   0.000000000   7.448734784

ATOMIC_SPECIES
W 183.84 W_ONCV_LDA-4.0.upf
O 15.9994 O_ONCV_LDA-3.0.upf

ATOMIC_POSITIONS crystal
W 0.21986651062129586	0.2759659774106288	0.005150640941399746	
W 0.7568664842657827	0.7240340225893712	-0.029789338058600304	
W 0.28013348937870414	0.22403403954753412	0.5051506396208963	
W 0.7431334683889765	0.7759660071136818	0.4702106176208963	
W 0.7801334343889765	0.2759659774106288	0.49484936037910365	
W 0.24313348937870416	0.7240340225893712	0.5297893823791037	
W 0.7198665182657827	0.22403403954753412	-0.0051506179413998	
W 0.2568665106212959	0.7759660071136818	0.02978936105860025	
O 0.2122540803608577	0.00671429263364356	-0.017297551441699418	
O 0.7805140260302498	-0.006714310755066528	-0.028157558441699378	
O 0.28774588166404746	0.49328571894798645	0.4827024005832057	
O 0.7194859066471505	0.5067143107550666	0.47184241958320566	
O 0.7877458346471505	0.00671429263364356	0.5172975770713858	
O 0.21948587166404743	-0.006714310755066528	0.5281575580713858	
O 0.7122540980302497	0.49328571894798645	0.01729754444169946	
O 0.2805140903608577	0.5067143107550666	0.02815755144169942	
O 0.5101675434598122	0.20990243490823732	0.46395205625867614	
O 0.5000475274598122	0.7799224722693618	0.5360479753607027	
O -0.010167533175534408	0.2900975350917626	0.9639520892586761	
O -4.7534175534392695e-05	0.7200776570961582	0.03604790491275985	
O 0.48983245654018776	0.20990243490823732	0.03604790491275985	
O 0.4999524725401877	0.7799224722693618	0.9639520892586761	
O 0.010167493459812224	0.2900975350917626	0.5360479753607027	
O 4.74944598122095e-05	0.7200776570961582	0.46395205625867614	
O 0.7139520559699052	0.2656735593017247	0.7456995245219591	
O 0.2860479124107158	0.7809536456402083	0.2610395058774722	
O 0.7860480066913107	0.23432642072091625	0.2456995988774722	
O 0.21395207225867616	0.7190464840593997	0.7610394965219591	
O 0.2860479124107158	0.2656735593017247	0.7543004680875182	
O 0.7139520559699052	0.7809536456402083	0.23896055912252784	
O 0.21395207225867616	0.23432642072091625	0.2543004661225279	
O 0.7860480066913107	0.7190464840593997	0.7389604960875181	

K_POINTS automatic
6 6 6 0 0 0
