&CONTROL
    calculation   = 'scf'
    restart_mode  = 'from_scratch'
    prefix        = 'chempot_5'
    pseudo_dir    = '/cluster/scratch/mnoe/QE/pps'
    outdir        = './'
/
&SYSTEM
    ibrav       = 0
    nat         = 32 
    ntyp        = 2
    ecutwfc     = 120
    occupations = 'smearing'
    degauss     = 7.35d-4
    tot_charge  = -.50
/
&ELECTRONS
    conv_thr    = 1.0d-8
    diagonalization = 'david'
/
CELL_PARAMETERS angstrom
   7.310124404   0.000000000   0.000000000
   0.000000000   7.601488034   0.000000000
   0.000000000   0.000000000   7.372772456


ATOMIC_SPECIES
W 183.84 W_ONCV_LDA-4.0.upf
O 15.9994 O_ONCV_LDA-3.0.upf

ATOMIC_POSITIONS crystal
W 0.231500000         0.281860003         0.017470001
W 0.768499983         0.718139997         0.982530022
W 0.268500000         0.218140012         0.517470011
W 0.731500017         0.781859972         0.482529989
W 0.768499983         0.281860003         0.482529989
W 0.231500000         0.718139997         0.517470011
W 0.731500017         0.218140012         0.982530022
W 0.268500000         0.781859972         0.017470001
O 0.215869987         0.008320000         0.005430000
O 0.784129964         0.991680023         0.994569993
O 0.284129997         0.491679992         0.505429974
O 0.715870036         0.508319977         0.494569993
O 0.784129964         0.008320000         0.494569993
O 0.215869987         0.991680023         0.505429974
O 0.715870036         0.491679992         0.994569993
O 0.284129997         0.508319977         0.005430000
O 0.505060008         0.214990001         0.449540004
O 0.494939992         0.785009999         0.550459963
O 0.994939959         0.285009969         0.949540037
O 0.005059958         0.714990031         0.050460012
O 0.494939992         0.214990001         0.050460012
O 0.505060008         0.785009999         0.949540037
O 0.005059958         0.285009969         0.550459963
O 0.994939959         0.714990031         0.449540004
O 0.699540037         0.242360002         0.742330014
O 0.300459996         0.757640029         0.257669986
O 0.800459963         0.257639998         0.242330079
O 0.199540020         0.742360002         0.757669986
O 0.300459996         0.242360002         0.757669986
O 0.699540037         0.757640029         0.242330079
O 0.199540020         0.257639998         0.257669986
O 0.800459963         0.742360002         0.742330014

K_POINTS automatic
6 6 6 0 0 0
