&CONTROL
    calculation   = 'scf'
    restart_mode  = 'from_scratch'
    prefix        = 'Landau_18'
    pseudo_dir    = '/cluster/scratch/mnoe/QE/pps'
    outdir        = './'
/
&SYSTEM
    ibrav       = 0
    nat         = 32
    ntyp        = 2
    ecutwfc     = 120
    occupations = 'smearing'
    degauss     = 7.35d-4
    tot_charge  = -1.0
/
&ELECTRONS
    conv_thr    = 1.0d-8
    diagonalization = 'david'
/

CELL_PARAMETERS angstrom
   7.447881572   0.000000000   0.000000000
   0.000000000   7.514643008   0.000000000
   0.000000000   0.000000000   7.475264148

ATOMIC_SPECIES
W 183.84 W_ONCV_LDA-4.0.upf
O 15.9994 O_ONCV_LDA-3.0.upf

ATOMIC_POSITIONS crystal
W 0.2254973946693747	0.2730476323102547	0.00740743286044483	
W 0.7587973473590394	0.7269523676897452	-0.024038548239555216	
W 0.2745026053306253	0.22695238561746542	0.5074074342191051	
W 0.7412025692921952	0.7730476920695832	0.475961414419105	
W 0.7745025386921951	0.2730476323102547	0.492592565780895	
W 0.24120260533062532	0.7269523676897452	0.524038585580895	
W 0.7254973779590393	0.22695238561746542	-0.0074074121604448765	
W 0.25879739466937474	0.7730476920695832	0.024038568939555166	
O 0.21684225131857895	0.005919248880577543	-0.010454097223147104	
O 0.7782761837750546	-0.005919287362703307	-0.020228103523147068	
O 0.28315771944823204	0.49408077239662523	0.48954586454366383	
O 0.7217237193914626	0.5059192873627033	0.4797718816436638	
O 0.7831576545914627	0.005919248880577543	0.5104541129481853	
O 0.22172371044823203	-0.005919287362703307	0.5202280958481854	
O 0.7168422485750546	0.49408077239662523	0.010454090923147141	
O 0.27827626031857894	0.5059192873627033	0.020228097223147105	
O 0.5080015936353732	0.2150568937880602	0.4710879842348438	
O 0.49889357923537325	0.778074941146223	0.5289120793799251	
O -0.008001594118485727	0.2849430792119398	0.9710880172348438	
O 0.0011064049815142853	0.7219251981043106	0.028911949788988433	
O 0.4919984063646268	0.2150568937880602	0.028911949788988433	
O 0.5011064207646267	0.778074941146223	0.9710880172348438	
O 0.00800154863537325	0.2849430792119398	0.5289120793799251	
O -0.001106450464626763	0.7219251981043106	0.4710879842348438	
O 0.7210879674635993	0.2588606529786642	0.7453714065069584	
O 0.2789119689216316	0.7726127399215444	0.25917741331729377	
O 0.7789121262234495	0.24113933353661848	0.24537149701729374	
O 0.22108800023484385	0.7273873997794986	0.7591773813069584	
O 0.2789119689216316	0.2588606529786642	0.7546285371137108	
O 0.7210879674635993	0.7726127399215444	0.2408226451827063	
O 0.22108800023484385	0.24113933353661848	0.2546285614827063	
O 0.7789121262234495	0.7273873997794986	0.7408225623137108	

K_POINTS automatic
6 6 6 0 0 0
