
&CONTROL
    calculation   = 'vc-relax'
    restart_mode  = 'from_scratch'
    prefix        = 'Landau_26'
    pseudo_dir    = '/cluster/scratch/mnoe/QE/pps'
    outdir        = './'
    forc_conv_thr = 1.0d-7
    etot_conv_thr = 1.0d-7

/
&SYSTEM
    ibrav       = 0
    nat         = 32
    ntyp        = 2
    ecutwfc     = 120
    occupations = 'smearing'
    degauss     = 7.35d-4
    tot_charge  = -0.0
/
&ELECTRONS
    conv_thr    = 1.0d-8
    diagonalization = 'david'
/


&IONS
ion_dynamics = 'bfgs'
/

&CELL
cell_dynamics = 'bfgs'
cell_dofree = 'all'
/
CELL_PARAMETERS angstrom
        7.3236460686         0.0000000000         0.0000000000
        0.0000000000         7.7495899200         0.0000000000
        0.0000000000         0.0000000000         7.3236460686

ATOMIC_SPECIES
W 183.84 W_ONCV_LDA-4.0.upf
O 15.9994 O_ONCV_LDA-3.0.upf

ATOMIC_POSITIONS crystal
W 0.25	0.2782356910332918	0.0	 0 0 0
W 0.7499999807344071	0.7217643089667082	0.0	 0 0 0
W 0.25	0.2217643251708077	0.5	 0 0 0
W 0.7499999807344071	0.778235697360378	0.5	 0 0 0
W 0.7499999807344071	0.2782356910332918	0.5	 0 0 0
W 0.25	0.7217643089667082	0.5	 0 0 0
W 0.7499999807344071	0.2217643251708077	0.0	 0 0 0
W 0.25	0.778235697360378	0.0	 0 0 0
O 0.25	0.007332629936081085	0.0	 0 0 0
O 0.7499999807344071	0.9926673677778283	0.0	 0 0 0
O 0.25	0.49266737410491446	0.5	 0 0 0
O 0.7499999807344071	0.5073326322221717	0.5	 0 0 0
O 0.7499999807344071	0.007332629936081085	0.5	 0 0 0
O 0.25	0.9926673677778283	0.5	 0 0 0
O 0.7499999807344071	0.49266737410491446	0.0	 0 0 0
O 0.25	0.5073326322221717	0.0	 0 0 0
O 0.5	0.25	0.45840215986850147	 0 0 0
O 0.5	0.7500000030614933	0.5415978468667838	 0 0 0
O 0.0	0.25	0.9584021928685015	 0 0 0
O 0.0	0.7500000030614933	0.04159782241671095	 0 0 0
O 0.5	0.25	0.04159782241671095	 0 0 0
O 0.5	0.7500000030614933	0.9584021928685015	 0 0 0
O 0.0	0.25	0.5415978468667838	 0 0 0
O 0.0	0.7500000030614933	0.45840215986850147	 0 0 0
O 0.7084021723988091	0.25	0.7499999807344071	 0 0 0
O 0.2915978208659056	0.7500000030614933	0.25	 0 0 0
O 0.7915978661323766	0.25	0.25	 0 0 0
O 0.20840217586850152	0.7500000030614933	0.7499999807344071	 0 0 0
O 0.2915978208659056	0.25	0.7499999807344071	 0 0 0
O 0.7084021723988091	0.7500000030614933	0.25	 0 0 0
O 0.20840217586850152	0.25	0.25	 0 0 0
O 0.7915978661323766	0.7500000030614933	0.7499999807344071	 0 0 0

K_POINTS automatic
6 6 6 0 0 0
