&CONTROL
    calculation   = 'scf'
    restart_mode  = 'from_scratch'
    prefix        = 'Landau_4'
    pseudo_dir    = '/cluster/scratch/mnoe/QE/pps'
    outdir        = './'
/
&SYSTEM
    ibrav       = 0
    nat         = 32
    ntyp        = 2
    ecutwfc     = 120
    occupations = 'smearing'
    degauss     = 7.35d-4
    tot_charge  = -0.2
/
&ELECTRONS
    conv_thr    = 1.0d-8
    diagonalization = 'david'
/

CELL_PARAMETERS angstrom
   7.376100316  -0.000000521   0.000000041
  -0.000000547   7.710781435   0.000000161
   0.000000041   0.000000154   7.376100387

ATOMIC_SPECIES
W 183.84 W_ONCV_LDA-4.0.upf
O 15.9994 O_ONCV_LDA-3.0.upf

ATOMIC_POSITIONS crystal
W 0.25	0.2786761453072697	0.0	
W 0.7499999830757101	0.7213238546927303	0.0	
W 0.25	0.2213238707504984	0.5	
W 0.7499999830757101	0.7786761470980812	0.5	
W 0.7499999830757101	0.2786761453072697	0.5	
W 0.25	0.7213238546927303	0.5	
W 0.7499999830757101	0.2213238707504984	0.0	
W 0.25	0.7786761470980812	0.0	
O 0.25	0.0074526227426180746	0.0	
O 0.7499999830757101	0.9925473780442515	0.0	
O 0.25	0.4925473798350631	0.5	
O 0.7499999830757101	0.5074526219557485	0.5	
O 0.7499999830757101	0.0074526227426180746	0.5	
O 0.25	0.9925473780442515	0.5	
O 0.7499999830757101	0.4925473798350631	0.0	
O 0.25	0.5074526219557485	0.0	
O 0.5	0.25	0.4573251625060242	
O 0.5	0.7500000008665217	0.5426748394003236	
O 0.0	0.25	0.9573251955060241	
O 0.0	0.7500000008665217	0.04267482387646865	
O 0.5	0.25	0.04267482387646865	
O 0.5	0.7500000008665217	0.9573251955060241	
O 0.0	0.25	0.5426748394003236	
O 0.0	0.7500000008665217	0.4573251625060242	
O 0.7073251775239663	0.25	0.7499999830757101	
O 0.29267482056968597	0.7500000008665217	0.25	
O 0.7926748563246133	0.25	0.25	
O 0.20732517850602417	0.7500000008665217	0.7499999830757101	
O 0.29267482056968597	0.25	0.7499999830757101	
O 0.7073251775239663	0.7500000008665217	0.25	
O 0.20732517850602417	0.25	0.25	
O 0.7926748563246133	0.7500000008665217	0.7499999830757101	

K_POINTS automatic
6 6 6 0 0 0
