&CONTROL
    calculation   = 'scf'
    restart_mode  = 'from_scratch'
    prefix        = 'Landau_19'
    pseudo_dir    = '/cluster/scratch/mnoe/QE/pps'
    outdir        = './'
/
&SYSTEM
    ibrav       = 0
    nat         = 32
    ntyp        = 2
    ecutwfc     = 120
    occupations = 'smearing'
    degauss     = 7.35d-4
    tot_charge  = -1.0
/
&ELECTRONS
    conv_thr    = 1.0d-8
    diagonalization = 'david'
/

CELL_PARAMETERS angstrom
   7.505858514   0.000000000   0.000000000
   0.000000000   7.595860639   0.000000000
   0.000000000   0.000000000   7.507548432

ATOMIC_SPECIES
W 183.84 W_ONCV_LDA-4.0.upf
O 15.9994 O_ONCV_LDA-3.0.upf

ATOMIC_POSITIONS crystal
W 0.2456112239461943	0.26693709363233864	0.004144428218851968	
W 0.7543886926958351	0.7330629063676614	-0.004144422762535806	
W 0.25438877605380567	0.23306292632547618	0.5041444305911633	
W 0.7456111486540824	0.7669372163246062	0.4958555694088366	
W 0.7543886926958351	0.26693709363233864	0.4958555694088366	
W 0.2456112239461943	0.7330629063676614	0.5041444305911633	
W 0.7456111486540824	0.23306292632547618	-0.004144422762535806	
W 0.25438877605380567	0.7669372163246062	0.004144428218851968	
O 0.24190329817456882	0.004254556927894236	0.0012881650795764801	
O 0.7580966108760642	-0.004254638042010963	-0.0012881667401944367	
O 0.25809669802973295	0.49574548465025664	0.5012881589115669	
O 0.7419032304738533	0.504254638042011	0.49871183325980556	
O 0.7580966108760642	0.004254556927894236	0.49871183325980556	
O 0.24190329817456882	-0.004254638042010963	0.5012881589115669	
O 0.7419032304738533	0.49574548465025664	-0.0012881667401944367	
O 0.25809669802973295	0.504254638042011	0.0012881650795764801	
O 0.5012003914563494	0.24169453809432642	0.4860294535955466	
O 0.4987996085436505	0.7583055248313669	0.5139706770123509	
O -0.0012003992849770298	0.2583054547887394	0.9860294865955466	
O 0.0012003795947925686	0.741694608136954	0.01397042358563104	
O 0.4987996085436505	0.24169453809432642	0.01397042358563104	
O 0.5012003914563494	0.7583055248313669	0.9860294865955466	
O 0.0012003795947925686	0.2583054547887394	0.5139706770123509	
O -0.0012003992849770298	0.741694608136954	0.4860294535955466	
O 0.7360294023126904	0.24818755457980954	0.7481803611674006	
O 0.26397046707941185	0.7518125157000491	0.25181955950755813	
O 0.7639707563373922	0.25181244542019043	0.24818045591246587	
O 0.2360294695955466	0.7481876175055029	0.7518194801825169	
O 0.26397046707941185	0.24818755457980954	0.7518194801825169	
O 0.7360294023126904	0.7518125157000491	0.24818045591246587	
O 0.2360294695955466	0.25181244542019043	0.25181955950755813	
O 0.7639707563373922	0.7481876175055029	0.7481803611674006	

K_POINTS automatic
6 6 6 0 0 0
