# Phonon frequency and phonon lifetime in meV 
# Q-point  Mode   Phonon freq (meV)   Phonon linewidth (meV)
        1     1     -0.37908806E-03      0.0000000000E+00
        1     2     -0.37908742E-03      0.0000000000E+00
        1     3     -0.17188931E-03      0.0000000000E+00
        1     4      0.30177594E+01      0.1403812820E-02
        1     5      0.15437877E+02      0.7192361386E-02
        1     6      0.25769853E+02      0.1128935981E-02
        1     7      0.25769853E+02      0.1128935981E-02
        1     8      0.30787310E+02      0.7797939253E-02
        1     9      0.30787310E+02      0.7797939253E-02
        1    10      0.31066035E+02      0.1531904477E+00
        1    11      0.36658141E+02      0.2585503251E-01
        1    12      0.36658141E+02      0.2585503251E-01
        1    13      0.39174974E+02      0.8542988937E-03
        1    14      0.39638230E+02      0.1543128316E-01
        1    15      0.39638230E+02      0.1543128316E-01
        1    16      0.46418300E+02      0.9978605959E-02
        1    17      0.46418300E+02      0.9978605959E-02
        1    18      0.57328112E+02      0.2967169364E-01
        1    19      0.80169763E+02      0.2381865838E-02
        1    20      0.80169763E+02      0.2381865838E-02
        1    21      0.88182691E+02      0.2600865416E-02
        1    22      0.92469694E+02      0.1358408974E+00
        1    23      0.93716296E+02      0.1183186388E-01
        1    24      0.12713252E+03      0.5583745610E-03
        2     1      0.16522951E+00      0.0000000000E+00
        2     2      0.16522951E+00      0.0000000000E+00
        2     3      0.33127047E+00      0.0000000000E+00
        2     4      0.30176169E+01      0.8461712920E-03
        2     5      0.15445304E+02      0.2283646181E-01
        2     6      0.25771888E+02      0.1380222551E-02
        2     7      0.25771888E+02      0.1380222551E-02
        2     8      0.30782064E+02      0.1006230734E-01
        2     9      0.30782064E+02      0.1006230734E-01
        2    10      0.31066277E+02      0.1681674343E+00
        2    11      0.36658344E+02      0.1956508085E-01
        2    12      0.36658344E+02      0.1956508085E-01
        2    13      0.39183332E+02      0.5819811778E-02
        2    14      0.39637678E+02      0.1205451253E-01
        2    15      0.39637678E+02      0.1205451253E-01
        2    16      0.46421413E+02      0.1059668961E-01
        2    17      0.46421413E+02      0.1059668961E-01
        2    18      0.57328023E+02      0.2961944620E-01
        2    19      0.80169250E+02      0.2467753799E-02
        2    20      0.80169250E+02      0.2467753799E-02
        2    21      0.88181701E+02      0.2513342305E-02
        2    22      0.92456318E+02      0.1259521776E+00
        2    23      0.93752246E+02      0.1228330347E-01
        2    24      0.12713359E+03      0.5883790733E-03
        3     1      0.33029519E+00      0.0000000000E+00
        3     2      0.33029519E+00      0.0000000000E+00
        3     3      0.66328686E+00     -0.2082786491E-02
        3     4      0.30171893E+01      0.8733274895E-03
        3     5      0.15467520E+02      0.3324146562E-01
        3     6      0.25777986E+02      0.2002932360E-02
        3     7      0.25777986E+02      0.2002932360E-02
        3     8      0.30766345E+02      0.1271626435E-01
        3     9      0.30766345E+02      0.1271626435E-01
        3    10      0.31067005E+02      0.1999130716E+00
        3    11      0.36658948E+02      0.1520186964E-01
        3    12      0.36658948E+02      0.1520186964E-01
        3    13      0.39208347E+02      0.7639530447E-01
        3    14      0.39636030E+02      0.9085515632E-02
        3    15      0.39636030E+02      0.9085515632E-02
        3    16      0.46430739E+02      0.1169641004E-01
        3    17      0.46430739E+02      0.1169641004E-01
        3    18      0.57327754E+02      0.2971445616E-01
        3    19      0.80167712E+02      0.2491324927E-02
        3    20      0.80167712E+02      0.2491324927E-02
        3    21      0.88178732E+02      0.2482529499E-02
        3    22      0.92421067E+02      0.1207973740E+00
        3    23      0.93855147E+02      0.1849879426E-01
        3    24      0.12713681E+03      0.6251527200E-03
        4     1      0.49503231E+00      0.0000000000E+00
        4     2      0.49503231E+00      0.0000000000E+00
        4     3      0.99676944E+00     -0.2397254356E-03
        4     4      0.30164763E+01      0.1234512823E-02
        4     5      0.15504340E+02      0.6271145181E-01
        4     6      0.25788120E+02      0.2169585511E-02
        4     7      0.25788120E+02      0.2169585511E-02
        4     8      0.30740216E+02      0.1440138942E-01
        4     9      0.30740216E+02      0.1440138942E-01
        4    10      0.31068215E+02      0.1989291902E+00
        4    11      0.36659944E+02      0.1178252364E-01
        4    12      0.36659944E+02      0.1178252364E-01
        4    13      0.39249837E+02      0.2340557242E+00
        4    14      0.39633306E+02      0.6826579093E-02
        4    15      0.39633306E+02      0.6826579093E-02
        4    16      0.46446227E+02      0.1360585584E-01
        4    17      0.46446227E+02      0.1360585584E-01
        4    18      0.57327308E+02      0.3283221933E-01
        4    19      0.80165150E+02      0.2279748582E-02
        4    20      0.80165150E+02      0.2279748582E-02
        4    21      0.88173785E+02      0.2331689363E-02
        4    22      0.92374570E+02      0.1175637564E+00
        4    23      0.94014163E+02      0.6429233182E-01
        4    24      0.12714217E+03      0.6540696465E-03
        5     1      0.65927806E+00      0.7351634567E-04
        5     2      0.65927806E+00      0.7351634567E-04
        5     3      0.13323891E+01      0.1487581004E-02
        5     4      0.30154771E+01      0.1349918445E-02
        5     5      0.15555458E+02      0.7788050013E-01
        5     6      0.25802245E+02      0.2293602783E-02
        5     7      0.25802245E+02      0.2293602783E-02
        5     8      0.30703778E+02      0.1390418499E-01
        5     9      0.30703778E+02      0.1390418499E-01
        5    10      0.31069905E+02      0.2043775124E+00
        5    11      0.36661313E+02      0.1170663354E-01
        5    12      0.36661313E+02      0.1170663354E-01
        5    13      0.39307505E+02      0.3658618292E+00
        5    14      0.39629545E+02      0.6845254248E-02
        5    15      0.39629545E+02      0.6845254248E-02
        5    16      0.46467798E+02      0.1423038109E-01
        5    17      0.46467798E+02      0.1423038109E-01
        5    18      0.57326683E+02      0.3629613528E-01
        5    19      0.80161567E+02      0.2094777005E-02
        5    20      0.80161567E+02      0.2094777005E-02
        5    21      0.88166863E+02      0.2184352317E-02
        5    22      0.92326969E+02      0.1326069951E+00
        5    23      0.94218802E+02      0.3698816734E+00
        5    24      0.12714968E+03      0.7576221290E-03
        6     1      0.82287112E+00      0.1404803248E-03
        6     2      0.82287112E+00      0.1404803248E-03
        6     3      0.16707459E+01      0.5849060781E-02
        6     4      0.30141909E+01      0.1093541200E-02
        6     5      0.15620464E+02      0.1016846516E+00
        6     6      0.25820295E+02      0.2475907696E-02
        6     7      0.25820295E+02      0.2475907696E-02
        6     8      0.30657174E+02      0.1231688116E-01
        6     9      0.30657174E+02      0.1231688116E-01
        6    10      0.31072072E+02      0.2054122770E+00
        6    11      0.36663032E+02      0.1228353704E-01
        6    12      0.36663032E+02      0.1228353704E-01
        6    13      0.39380942E+02      0.4252966812E+00
        6    14      0.39624795E+02      0.7247409279E-02
        6    15      0.39624795E+02      0.7247409279E-02
        6    16      0.46495342E+02      0.1266314066E-01
        6    17      0.46495342E+02      0.1266314066E-01
        6    18      0.57325880E+02      0.3459980294E-01
        6    19      0.80156967E+02      0.1951555770E-02
        6    20      0.80156967E+02      0.1951555770E-02
        6    21      0.88157971E+02      0.2133089803E-02
        6    22      0.92285400E+02      0.2136216544E+00
        6    23      0.94461447E+02      0.9777244530E+00
        6    24      0.12715935E+03      0.1299455621E-02
        7     1      0.98565222E+00      0.1966425703E-03
        7     2      0.98565222E+00      0.1966425703E-03
        7     3      0.20123520E+01      0.7254104555E-02
        7     4      0.30126166E+01      0.1723793634E-02
        7     5      0.15698854E+02      0.1192979294E+00
        7     6      0.25842185E+02      0.2791104389E-02
        7     7      0.25842185E+02      0.2791104389E-02
        7     8      0.30600589E+02      0.1286120310E-01
        7     9      0.30600589E+02      0.1286120310E-01
        7    10      0.31074711E+02      0.2313136266E+00
        7    11      0.36665074E+02      0.1763107205E-01
        7    12      0.36665074E+02      0.1763107205E-01
        7    13      0.39469629E+02      0.4845965047E+00
        7    14      0.39619117E+02      0.9901468375E-02
        7    15      0.39619117E+02      0.9901468375E-02
        7    16      0.46528721E+02      0.1198921561E-01
        7    17      0.46528721E+02      0.1198921561E-01
        7    18      0.57324900E+02      0.3179930471E-01
        7    19      0.80151356E+02      0.1845152749E-02
        7    20      0.80151356E+02      0.1845152749E-02
        7    21      0.88147113E+02      0.2258236037E-02
        7    22      0.92254237E+02      0.3732613946E+00
        7    23      0.94737103E+02      0.1568068646E+01
        7    24      0.12717117E+03      0.2472708550E-02
        8     1      0.11474647E+01      0.2407534943E-03
        8     2      0.11474647E+01      0.2407534943E-03
        8     3      0.23576184E+01     -0.3627660552E-03
        8     4      0.30107529E+01      0.2085601260E-02
        8     5      0.15790047E+02      0.1338681972E+00
        8     6      0.25867802E+02      0.2999642841E-02
        8     7      0.25867802E+02      0.2999642841E-02
        8     8      0.30534250E+02      0.1362412651E-01
        8     9      0.30534250E+02      0.1362412651E-01
        8    10      0.31077815E+02      0.2475851022E+00
        8    11      0.36667403E+02      0.1968921065E-01
        8    12      0.36667403E+02      0.1968921065E-01
        8    13      0.39572953E+02      0.5909212814E+00
        8    14      0.39612584E+02      0.1108361022E-01
        8    15      0.39612584E+02      0.1108361022E-01
        8    16      0.46567773E+02      0.1168824764E-01
        8    17      0.46567773E+02      0.1168824764E-01
        8    18      0.57323743E+02      0.2906207324E-01
        8    19      0.80144738E+02      0.1943228633E-02
        8    20      0.80144738E+02      0.1943228633E-02
        8    21      0.88134296E+02      0.2420498822E-02
        8    22      0.92235973E+02      0.5003458340E+00
        8    23      0.95042531E+02      0.1903814374E+01
        8    24      0.12718515E+03      0.3426861071E-02
        9     1      0.13081548E+01      0.2842570258E-03
        9     2      0.13081548E+01      0.2842570258E-03
        9     3      0.27068473E+01     -0.1205559915E-01
        9     4      0.30085982E+01      0.1644323106E-02
        9     5      0.15893406E+02      0.1298693274E+00
        9     6      0.25897005E+02      0.2768550275E-02
        9     7      0.25897005E+02      0.2768550275E-02
        9     8      0.30458429E+02      0.1243847810E-01
        9     9      0.30458429E+02      0.1243847810E-01
        9    10      0.31081378E+02      0.2331880376E+00
        9    11      0.36669983E+02      0.1630466044E-01
        9    12      0.36669983E+02      0.1630466044E-01
        9    13      0.39605276E+02      0.9397734176E-02
        9    14      0.39605276E+02      0.9397734176E-02
        9    15      0.39690208E+02      0.6574906162E+00
        9    16      0.46612312E+02      0.1093553845E-01
        9    17      0.46612312E+02      0.1093553845E-01
        9    18      0.57322410E+02      0.2803092505E-01
        9    19      0.80137122E+02      0.2081658109E-02
        9    20      0.80137122E+02      0.2081658109E-02
        9    21      0.88119529E+02      0.2384193755E-02
        9    22      0.92231918E+02      0.5867421303E+00
        9    23      0.95375539E+02      0.2073047224E+01
        9    24      0.12720130E+03      0.3071269989E-02
       10     1      0.14675724E+01      0.3559085121E-03
       10     2      0.14675724E+01      0.3559085121E-03
       10     3      0.30061507E+01      0.1632568478E-02
       10     4      0.30602279E+01     -0.3743472341E-01
       10     5      0.16008250E+02      0.1188525779E+00
       10     6      0.25929621E+02      0.2579773210E-02
       10     7      0.25929621E+02      0.2579773210E-02
       10     8      0.30373445E+02      0.1148787275E-01
       10     9      0.30373445E+02      0.1148787275E-01
       10    10      0.31085393E+02      0.2278711429E+00
       10    11      0.36672774E+02      0.1167002878E-01
       10    12      0.36672774E+02      0.1167002878E-01
       10    13      0.39597280E+02      0.6641821359E-02
       10    14      0.39597280E+02      0.6641821359E-02
       10    15      0.39820610E+02      0.7249741156E+00
       10    16      0.46662134E+02      0.9930745220E-02
       10    17      0.46662134E+02      0.9930745220E-02
       10    18      0.57320902E+02      0.2638949753E-01
       10    19      0.80128516E+02      0.2097751479E-02
       10    20      0.80128516E+02      0.2097751479E-02
       10    21      0.88102819E+02      0.2464740075E-02
       10    22      0.92242656E+02      0.6714026079E+00
       10    23      0.95734545E+02      0.2347806212E+01
       10    24      0.12721963E+03      0.2722892550E-02
       11     1      0.16255715E+01      0.4408256217E-03
       11     2      0.16255715E+01      0.4408256217E-03
       11     3      0.30034084E+01      0.2196013364E-02
       11     4      0.34178370E+01     -0.3947923790E-01
       11     5      0.16133876E+02      0.1215951829E+00
       11     6      0.25965434E+02      0.2471653641E-02
       11     7      0.25965434E+02      0.2471653641E-02
       11     8      0.30279669E+02      0.1080933672E-01
       11     9      0.30279669E+02      0.1080933672E-01
       11    10      0.31089850E+02      0.2150701169E+00
       11    11      0.36675734E+02      0.1451479534E-01
       11    12      0.36675734E+02      0.1451479534E-01
       11    13      0.39588690E+02      0.7945956112E-02
       11    14      0.39588690E+02      0.7945956112E-02
       11    15      0.39963305E+02      0.8209500585E+00
       11    16      0.46717016E+02      0.8900725415E-02
       11    17      0.46717016E+02      0.8900725415E-02
       11    18      0.57319220E+02      0.2348396616E-01
       11    19      0.80118929E+02      0.2059014281E-02
       11    20      0.80118929E+02      0.2059014281E-02
       11    21      0.88084177E+02      0.2699149149E-02
       11    22      0.92268311E+02      0.7456482719E+00
       11    23      0.96118302E+02      0.2657170306E+01
       11    24      0.12724013E+03      0.2555757768E-02
       12     1      0.17820102E+01      0.5079031327E-03
       12     2      0.17820102E+01      0.5079031327E-03
       12     3      0.30003692E+01      0.2075985068E-02
       12     4      0.37796433E+01     -0.6636238070E-01
       12     5      0.16269573E+02      0.1031269084E+00
       12     6      0.26004178E+02      0.2398551822E-02
       12     7      0.26004178E+02      0.2398551822E-02
       12     8      0.30177532E+02      0.9910077028E-02
       12     9      0.30177532E+02      0.9910077028E-02
       12    10      0.31094740E+02      0.2040126807E+00
       12    11      0.36678818E+02      0.1333771845E-01
       12    12      0.36678818E+02      0.1333771845E-01
       12    13      0.39579600E+02      0.7512600804E-02
       12    14      0.39579600E+02      0.7512600804E-02
       12    15      0.40117382E+02      0.9457677470E+00
       12    16      0.46776724E+02      0.8121665905E-02
       12    17      0.46776724E+02      0.8121665905E-02
       12    18      0.57317365E+02      0.2249857198E-01
       12    19      0.80108371E+02      0.2094303300E-02
       12    20      0.80108371E+02      0.2094303300E-02
       12    21      0.88063614E+02      0.2962079655E-02
       12    22      0.92308713E+02      0.7664230065E+00
       12    23      0.96525749E+02      0.2880853290E+01
       12    24      0.12726282E+03      0.2632975011E-02
       13     1      0.19367516E+01      0.5703460778E-03
       13     2      0.19367516E+01      0.5703460778E-03
       13     3      0.29970307E+01      0.1520534856E-02
       13     4      0.41455135E+01     -0.8455957126E-01
       13     5      0.16414638E+02      0.9431834837E-01
       13     6      0.26045526E+02      0.2427621204E-02
       13     7      0.26045526E+02      0.2427621204E-02
       13     8      0.30067532E+02      0.9606802016E-02
       13     9      0.30067532E+02      0.9606802016E-02
       13    10      0.31100051E+02      0.2105897503E+00
       13    11      0.36681985E+02      0.1625603713E-01
       13    12      0.36681985E+02      0.1625603713E-01
       13    13      0.39570110E+02      0.9522349669E-02
       13    14      0.39570110E+02      0.9522349669E-02
       13    15      0.40281883E+02      0.1159111648E+01
       13    16      0.46841014E+02      0.7873141803E-02
       13    17      0.46841014E+02      0.7873141803E-02
       13    18      0.57315338E+02      0.2215622740E-01
       13    19      0.80096855E+02      0.2331429503E-02
       13    20      0.80096855E+02      0.2331429503E-02
       13    21      0.88041143E+02      0.3252541455E-02
       13    22      0.92363494E+02      0.8118814215E+00
       13    23      0.96955910E+02      0.3232445856E+01
       13    24      0.12728770E+03      0.3429787982E-02
       14     1      0.20896639E+01      0.9514994881E-03
       14     2      0.20896639E+01      0.9514994881E-03
       14     3      0.29933904E+01      0.1150803127E-02
       14     4      0.45152215E+01     -0.6306511578E-01
       14     5      0.16568386E+02      0.1110856564E+00
       14     6      0.26089070E+02      0.2702490406E-02
       14     7      0.26089070E+02      0.2702490406E-02
       14     8      0.29950252E+02      0.8841487272E-02
       14     9      0.29950252E+02      0.8841487272E-02
       14    10      0.31105772E+02      0.2138781986E+00
       14    11      0.36685190E+02      0.1186852355E-01
       14    12      0.36685190E+02      0.1186852355E-01
       14    13      0.39560318E+02      0.7118953111E-02
       14    14      0.39560318E+02      0.7118953111E-02
       14    15      0.40455814E+02      0.1195160092E+01
       14    16      0.46909633E+02      0.7492798040E-02
       14    17      0.46909633E+02      0.7492798040E-02
       14    18      0.57313141E+02      0.2120962979E-01
       14    19      0.80084391E+02      0.2343863558E-02
       14    20      0.80084391E+02      0.2343863558E-02
       14    21      0.88016777E+02      0.3615774254E-02
       14    22      0.92432152E+02      0.8670487203E+00
       14    23      0.97407845E+02      0.3584952538E+01
       14    24      0.12731477E+03      0.4008247934E-02
       15     1      0.22406211E+01      0.1152947750E-02
       15     2      0.22406211E+01      0.1152947750E-02
       15     3      0.29894456E+01      0.1422786021E-02
       15     4      0.48884573E+01     -0.5975326155E-01
       15     5      0.16730162E+02      0.1179026764E+00
       15     6      0.26134300E+02      0.3050255123E-02
       15     7      0.26134300E+02      0.3050255123E-02
       15     8      0.29826377E+02      0.8242463150E-02
       15     9      0.29826377E+02      0.8242463150E-02
       15    10      0.31111892E+02      0.2262659474E+00
       15    11      0.36688391E+02      0.1407251274E-01
       15    12      0.36688391E+02      0.1407251274E-01
       15    13      0.39550321E+02      0.8269672711E-02
       15    14      0.39550321E+02      0.8269672711E-02
       15    15      0.40638158E+02      0.1259619558E+01
       15    16      0.46982324E+02      0.6808346320E-02
       15    17      0.46982324E+02      0.6808346320E-02
       15    18      0.57310775E+02      0.1847953210E-01
       15    19      0.80070995E+02      0.2214288867E-02
       15    20      0.80070995E+02      0.2214288867E-02
       15    21      0.87990533E+02      0.4136187089E-02
       15    22      0.92514093E+02      0.9537634324E+00
       15    23      0.97880608E+02      0.4123343139E+01
       15    24      0.12734404E+03      0.4852850299E-02
       16     1      0.23895028E+01      0.1320209853E-02
       16     2      0.23895028E+01      0.1320209853E-02
       16     3      0.29851937E+01      0.8396534141E-03
       16     4      0.52648380E+01     -0.1971700954E-01
       16     5      0.16899348E+02      0.1452690081E+00
       16     6      0.26180572E+02      0.2759969078E-02
       16     7      0.26180572E+02      0.2759969078E-02
       16     8      0.29696727E+02      0.7226841629E-02
       16     9      0.29696727E+02      0.7226841629E-02
       16    10      0.31118396E+02      0.1990786100E+00
       16    11      0.36691549E+02      0.1440056962E-01
       16    12      0.36691549E+02      0.1440056962E-01
       16    13      0.39540216E+02      0.9029203239E-02
       16    14      0.39540216E+02      0.9029203239E-02
       16    15      0.40827883E+02      0.1349972020E+01
       16    16      0.47058830E+02      0.5953373897E-02
       16    17      0.47058830E+02      0.5953373897E-02
       16    18      0.57308241E+02      0.1625993195E-01
       16    19      0.80056681E+02      0.2204861383E-02
       16    20      0.80056681E+02      0.2204861383E-02
       16    21      0.87962425E+02      0.4659256534E-02
       16    22      0.92608658E+02      0.9360083759E+00
       16    23      0.98373236E+02      0.4338673562E+01
       16    24      0.12737552E+03      0.6744466263E-02
       17     1      0.25361949E+01      0.1523060955E-02
       17     2      0.25361949E+01      0.1523060955E-02
       17     3      0.29806317E+01      0.5356374908E-03
       17     4      0.56439184E+01      0.2034616279E-01
       17     5      0.17075371E+02      0.1672610161E+00
       17     6      0.26227068E+02      0.3049516532E-02
       17     7      0.26227068E+02      0.3049516532E-02
       17     8      0.29562295E+02      0.7362469484E-02
       17     9      0.29562295E+02      0.7362469484E-02
       17    10      0.31125270E+02      0.2160549140E+00
       17    11      0.36694623E+02      0.1145745979E-01
       17    12      0.36694623E+02      0.1145745979E-01
       17    13      0.39530096E+02      0.6974470663E-02
       17    14      0.39530096E+02      0.6974470663E-02
       17    15      0.41023954E+02      0.1409276348E+01
       17    16      0.47138892E+02      0.5375073651E-02
       17    17      0.47138892E+02      0.5375073651E-02
       17    18      0.57305542E+02      0.1367662916E-01
       17    19      0.80041464E+02      0.2259231396E-02
       17    20      0.80041464E+02      0.2259231396E-02
       17    21      0.87932473E+02      0.4631563214E-02
       17    22      0.92715142E+02      0.9394878340E+00
       17    23      0.98884728E+02      0.4644135690E+01
       17    24      0.12740919E+03      0.8351654064E-02
       18     1      0.26805898E+01      0.1680612705E-02
       18     2      0.26805898E+01      0.1680612705E-02
       18     3      0.29757566E+01      0.1563425230E-03
       18     4      0.60252004E+01      0.3358654646E-02
       18     5      0.17257703E+02      0.1622123346E+00
       18     6      0.26272737E+02      0.3455248899E-02
       18     7      0.26272737E+02      0.3455248899E-02
       18     8      0.29424302E+02      0.7748419583E-02
       18     9      0.29424302E+02      0.7748419583E-02
       18    10      0.31132501E+02      0.2353345102E+00
       18    11      0.36697577E+02      0.1218738710E-01
       18    12      0.36697577E+02      0.1218738710E-01
       18    13      0.39520050E+02      0.7360884799E-02
       18    14      0.39520050E+02      0.7360884799E-02
       18    15      0.41225341E+02      0.1496381395E+01
       18    16      0.47222254E+02      0.5276055193E-02
       18    17      0.47222254E+02      0.5276055193E-02
       18    18      0.57302678E+02      0.1173908826E-01
       18    19      0.80025360E+02      0.2245426499E-02
       18    20      0.80025360E+02      0.2245426499E-02
       18    21      0.87900694E+02      0.4792603262E-02
       18    22      0.92832806E+02      0.9547905001E+00
       18    23      0.99414047E+02      0.4973191766E+01
       18    24      0.12744507E+03      0.1010073421E-01
       19     1      0.28225865E+01      0.2197954391E-02
       19     2      0.28225865E+01      0.2197954391E-02
       19     3      0.29705654E+01      0.8089549253E-03
       19     4      0.64081437E+01      0.3604920282E-01
       19     5      0.17445867E+02      0.1837471365E+00
       19     6      0.26316220E+02      0.3461683927E-02
       19     7      0.26316220E+02      0.3461683927E-02
       19     8      0.29284270E+02      0.7703793953E-02
       19     9      0.29284270E+02      0.7703793953E-02
       19    10      0.31140071E+02      0.2422454883E+00
       19    11      0.36700377E+02      0.1260381048E-01
       19    12      0.36700377E+02      0.1260381048E-01
       19    13      0.39510166E+02      0.8191159259E-02
       19    14      0.39510166E+02      0.8191159259E-02
       19    15      0.41431028E+02      0.1379989523E+01
       19    16      0.47308664E+02      0.5146283867E-02
       19    17      0.47308664E+02      0.5146283867E-02
       19    18      0.57299653E+02      0.9849764639E-02
       19    19      0.80008386E+02      0.2077024316E-02
       19    20      0.80008386E+02      0.2077024316E-02
       19    21      0.87867111E+02      0.5183421879E-02
       19    22      0.92960892E+02      0.9995846126E+00
       19    23      0.99960110E+02      0.5447877439E+01
       19    24      0.12748314E+03      0.1077124782E-01
       20     1      0.29620909E+01      0.1351760864E-02
       20     2      0.29620909E+01      0.1351760864E-02
       20     3      0.29650552E+01      0.1351760864E-02
       20     4      0.67921741E+01      0.1479306264E-01
       20     5      0.17639436E+02      0.1634033001E+00
       20     6      0.26355754E+02      0.3201006513E-02
       20     7      0.26355754E+02      0.3201006513E-02
       20     8      0.29144121E+02      0.7110576476E-02
       20     9      0.29144121E+02      0.7110576476E-02
       20    10      0.31147966E+02      0.2137951917E+00
       20    11      0.36702991E+02      0.1215474135E-01
       20    12      0.36702991E+02      0.1215474135E-01
       20    13      0.39500524E+02      0.8267001407E-02
       20    14      0.39500524E+02      0.8267001407E-02
       20    15      0.41640019E+02      0.1074013614E+01
       20    16      0.47397874E+02      0.4943666136E-02
       20    17      0.47397874E+02      0.4943666136E-02
       20    18      0.57296469E+02      0.8836081245E-02
       20    19      0.79990562E+02      0.1992246949E-02
       20    20      0.79990562E+02      0.1992246949E-02
       20    21      0.87831744E+02      0.5086192669E-02
       20    22      0.93098628E+02      0.9067933222E+00
       20    23      0.10052180E+03      0.5303764438E+01
       20    24      0.12752341E+03      0.1118578412E-01
       21     1      0.29592227E+01     -0.1490378178E-02
       21     2      0.30990161E+01      0.2569957675E-02
       21     3      0.30990161E+01      0.2569957675E-02
       21     4      0.71766925E+01      0.1102159249E-01
       21     5      0.17838035E+02      0.1621398830E+00
       21     6      0.26389054E+02      0.3705669364E-02
       21     7      0.26389054E+02      0.3705669364E-02
       21     8      0.29006288E+02      0.7054486047E-02
       21     9      0.29006288E+02      0.7054486047E-02
       21    10      0.31156168E+02      0.2191223075E+00
       21    11      0.36705388E+02      0.8079704619E-02
       21    12      0.36705388E+02      0.8079704619E-02
       21    13      0.39491204E+02      0.5438424706E-02
       21    14      0.39491204E+02      0.5438424706E-02
       21    15      0.41851348E+02      0.1176702373E+01
       21    16      0.47489645E+02      0.4964594962E-02
       21    17      0.47489645E+02      0.4964594962E-02
       21    18      0.57293127E+02      0.9222895999E-02
       21    19      0.79971906E+02      0.1997030587E-02
       21    20      0.79971906E+02      0.1997030587E-02
       21    21      0.87794616E+02      0.5506655106E-02
       21    22      0.93245235E+02      0.8573374605E+00
       21    23      0.10109794E+03      0.5183027204E+01
       21    24      0.12756586E+03      0.1225482245E-01
       22     1      0.29530650E+01     -0.1229335431E-02
       22     2      0.32332820E+01      0.2727039104E-02
       22     3      0.32332820E+01      0.2727039104E-02
       22     4      0.75610826E+01      0.2276908297E-04
       22     5      0.18041335E+02      0.1567752606E+00
       22     6      0.26413204E+02      0.3920187702E-02
       22     7      0.26413204E+02      0.3920187702E-02
       22     8      0.28873831E+02      0.7130697878E-02
       22     9      0.28873831E+02      0.7130697878E-02
       22    10      0.31164661E+02      0.2155798395E+00
       22    11      0.36707543E+02      0.7246647486E-02