&CONTROL
    calculation   = 'scf'
    restart_mode  = 'from_scratch'
    prefix        = 'Landau_16'
    pseudo_dir    = '/cluster/scratch/mnoe/QE/pps'
    outdir        = './'
/
&SYSTEM
    ibrav       = 0
    nat         = 32
    ntyp        = 2
    ecutwfc     = 120
    occupations = 'smearing'
    degauss     = 7.35d-4
    tot_charge  = -0.2
/
&ELECTRONS
    conv_thr    = 1.0d-8
    diagonalization = 'david'
/

CELL_PARAMETERS angstrom
   7.373199083   0.000000000   0.000000000
   0.000000000   7.543565997   0.000000000
   0.000000000   0.000000000   7.373199083

ATOMIC_SPECIES
W 183.84 W_ONCV_LDA-4.0.upf
O 15.9994 O_ONCV_LDA-3.0.upf

ATOMIC_POSITIONS crystal
W 0.2212239912	0.28026278044789077	-0.0008239855999999986	
W 0.7508239955097156	0.7197372195521092	-0.028775968800000037	
W 0.27877600880000003	0.219737235082752	0.4991760088	
W 0.7491760059097156	0.7802627658978168	0.47122399119999997	
W 0.7787759787097156	0.28026278044789077	0.5008239912	
W 0.24917600880000002	0.7197372195521092	0.5287760088	
W 0.7212240227097155	0.219737235082752	0.0008240039999999529	
W 0.2508239912	0.7802627658978168	0.02877598719999999	
O 0.218351984	0.007884869208871879	-0.02295997120000001	
O 0.7729599571097157	-0.007884857352370165	-0.03164797679999998	
O 0.28164797680000003	0.4921151280975559	0.4770399816	
O 0.7270400203097156	0.5078848573523702	0.46835199679999995	
O 0.7816479627097156	0.007884869208871879	0.5229600047999999	
O 0.22703996880000002	-0.007884857352370165	0.5316479896	
O 0.7183520147097155	0.4921151280975559	0.02295996560000004	
O 0.272959992	0.5078848573523702	0.03164797120000001	
O 0.5101839952	0.2158800024	0.4534455274051318	
O 0.5020879824	0.7718960177596417	0.5465544571060799	
O -0.010183969600000009	0.28411997359999996	0.9534455604051317	
O -0.0020879703999999973	0.7281040649596418	0.04655447373687049	
O 0.4898160048	0.2158800024	0.04655447373687049	
O 0.4979120175999999	0.7718960177596417	0.9534455604051317	
O 0.010183955200000013	0.28411997359999996	0.5465544571060799	
O 0.002087956000000002	0.7281040649596418	0.4534455274051318	
O 0.7034455513842046	0.2718959768	0.7479120355097156	
O 0.2965544641045838	0.7841200393596417	0.2601839952	
O 0.7965544655963642	0.22810399919999996	0.2479120696	
O 0.20344554340513177	0.7158800433596416	0.7601840131097156	
O 0.2965544641045838	0.2718959768	0.7520880139097156	
O 0.7034455513842046	0.7841200393596417	0.23981605680000004	
O 0.20344554340513177	0.22810399919999996	0.2520879824000001	
O 0.7965544655963642	0.7158800433596416	0.7398160363097156	

K_POINTS automatic
6 6 6 0 0 0
