&CONTROL
    calculation   = 'scf'
    restart_mode  = 'from_scratch'
    prefix        = 'Landau_14'
    pseudo_dir    = '/cluster/scratch/mnoe/QE/pps'
    outdir        = './'
/
&SYSTEM
    ibrav       = 0
    nat         = 32
    ntyp        = 2
    ecutwfc     = 120
    occupations = 'smearing'
    degauss     = 7.35d-4
    tot_charge  = -0.68
/
&ELECTRONS
    conv_thr    = 1.0d-8
    diagonalization = 'david'
/

CELL_PARAMETERS angstrom
   7.322038740   0.000000000   0.000000000
   0.000000000   7.731097877   0.000000000
   0.000000000   0.000000000   7.329351742

ATOMIC_SPECIES
W 183.84 W_ONCV_LDA-4.0.upf
O 15.9994 O_ONCV_LDA-3.0.upf

ATOMIC_POSITIONS crystal
W         0.243530010         0.281860003         0.006120000
W         0.756469974         0.718139997         0.993880002
W         0.256469990         0.218140012         0.506120030
W         0.743530026         0.781859972         0.493880002
W         0.756469974         0.281860003         0.493880002
W         0.243530010         0.718139997         0.506120030
W         0.743530026         0.218140012         0.993880002
W         0.256469990         0.781859972         0.006120000
O         0.238059992         0.008320000         0.001900000
O         0.761940025         0.991680023         0.998099970
O         0.261940008         0.491679992         0.501900030
O         0.738059975         0.508319977         0.498100002
O         0.761940025         0.008320000         0.498100002
O         0.238059992         0.991680023         0.501900030
O         0.738059975         0.491679992         0.998099970
O         0.261940008         0.508319977         0.001900000
O         0.501770034         0.237749996         0.449540004
O         0.498229966         0.762250035         0.550459963
O         0.998229998         0.262250004         0.949540037
O         0.001770020         0.737749996         0.050460012
O         0.498229966         0.237749996         0.050460012
O         0.501770034         0.762250035         0.949540037
O         0.001770020         0.262250004         0.550459963
O         0.998229998         0.737749996         0.449540004
O         0.699540037         0.247320003         0.747319994
O         0.300459996         0.752680027         0.252680006
O         0.800459963         0.252679997         0.247319929
O         0.199540020         0.747320003         0.752680006
O         0.300459996         0.247320003         0.752680006
O         0.699540037         0.752680027         0.247319929
O         0.199540020         0.252679997         0.252680006
O         0.800459963         0.747320003         0.747319994

K_POINTS automatic
6 6 6 0 0 0
