
&CONTROL
    calculation   = 'vc-relax'
    restart_mode  = 'from_scratch'
    prefix        = 'Landau_25'
    pseudo_dir    = '/cluster/scratch/mnoe/QE/pps'
    outdir        = './'
    forc_conv_thr = 1.0d-7
    etot_conv_thr = 1.0d-7

/
&SYSTEM
    ibrav       = 0
    nat         = 32
    ntyp        = 2
    ecutwfc     = 120
    occupations = 'smearing'
    degauss     = 7.35d-4
    tot_charge  = -0.0
/
&ELECTRONS
    conv_thr    = 1.0d-8
    diagonalization = 'david'
/


&IONS
ion_dynamics = 'bfgs'
/

&CELL
cell_dynamics = 'bfgs'
cell_dofree = 'all'
/
CELL_PARAMETERS angstrom
        7.3236460686         0.0000000000         0.0000000000
        0.0000000000         7.7495899200         0.0000000000
        0.0000000000         0.0000000000         7.3236460686

ATOMIC_SPECIES
W 183.84 W_ONCV_LDA-4.0.upf
O 15.9994 O_ONCV_LDA-3.0.upf

ATOMIC_POSITIONS crystal
W 0.24133794199906772	0.27204229946864383	0.008179792537207832	 0 0 0
W 0.7586619978536762	0.7279577005313561	-0.008179781768162774	 0 0 0
W 0.2586620580009323	0.22795771879307644	0.5081797972194013	 0 0 0
W 0.7413378977712696	0.7720423695819778	0.4918202027805986	 0 0 0
W 0.7586619978536762	0.27204229946864383	0.4918202027805986	 0 0 0
W 0.24133794199906772	0.7279577005313561	0.5081797972194013	 0 0 0
W 0.7413378977712696	0.22795771879307644	-0.008179781768162774	 0 0 0
W 0.2586620580009323	0.7720423695819778	0.008179792537207832	 0 0 0
O 0.2340196674498069	0.0056453663999304175	0.0025424310781114734	 0 0 0
O 0.7659802574199177	-0.005645411896059837	-0.0025424343556469144	 0 0 0
O 0.2659803250586835	0.4943546582172741	0.5025424189044083	 0 0 0
O 0.7340196382050279	0.5056454118960598	0.49745756564435306	 0 0 0
O 0.7659802574199177	0.0056453663999304175	0.49745756564435306	 0 0 0
O 0.2340196674498069	-0.005645411896059837	0.5025424189044083	 0 0 0
O 0.7340196382050279	0.4943546582172741	-0.0025424343556469144	 0 0 0
O 0.2659803250586835	0.5056454118960598	0.0025424310781114734	 0 0 0
O 0.5023691936638476	0.23360764097564427	0.47354622083917536	 0 0 0
O 0.49763080633615236	0.7663923999734528	0.5264538537975992	 0 0 0
O -0.0023692091150862428	0.2663923449777752	0.9735462538391754	 0 0 0
O 0.002369170252880069	0.7336076959713219	0.026453703832652	 0 0 0
O 0.49763080633615236	0.23360764097564427	0.026453703832652	 0 0 0
O 0.5023691936638476	0.7663923999734528	0.9735462538391754	 0 0 0
O 0.002369170252880069	0.2663923449777752	0.5264538537975992	 0 0 0
O -0.0023692091150862428	0.7336076959713219	0.47354622083917536	 0 0 0
O 0.7235461983899278	0.24642280509172937	0.7464087119422924	 0 0 0
O 0.2764537269732973	0.7535772503721676	0.25359123587018045	 0 0 0
O 0.7764539059851264	0.25357719490827063	0.24640879456407738	 0 0 0
O 0.2235462368391754	0.7464228460408264	0.7535911836826533	 0 0 0
O 0.2764537269732973	0.24642280509172937	0.7535911836826533	 0 0 0
O 0.7235461983899278	0.7535772503721676	0.24640879456407738	 0 0 0
O 0.2235462368391754	0.25357719490827063	0.25359123587018045	 0 0 0
O 0.7764539059851264	0.7464228460408264	0.7464087119422924	 0 0 0

K_POINTS automatic
6 6 6 0 0 0
