
&CONTROL
    calculation   = 'vc-relax'
    restart_mode  = 'from_scratch'
    prefix        = 'Landau_24'
    pseudo_dir    = '/cluster/scratch/mnoe/QE/pps'
    outdir        = './'
    forc_conv_thr = 1.0d-7
    etot_conv_thr = 1.0d-7

/
&SYSTEM
    ibrav       = 0
    nat         = 32
    ntyp        = 2
    ecutwfc     = 120
    occupations = 'smearing'
    degauss     = 7.35d-4
    tot_charge  = -0.0
/
&ELECTRONS
    conv_thr    = 1.0d-8
    diagonalization = 'david'
/


&IONS
ion_dynamics = 'bfgs'
/

&CELL
cell_dynamics = 'bfgs'
cell_dofree = 'all'
/
CELL_PARAMETERS angstrom
        7.3236460686         0.0000000000         0.0000000000
        0.0000000000         7.7495899200         0.0000000000
        0.0000000000         0.0000000000         7.3236460686

ATOMIC_SPECIES
W 183.84 W_ONCV_LDA-4.0.upf
O 15.9994 O_ONCV_LDA-3.0.upf

ATOMIC_POSITIONS crystal
W 0.2389	0.27947396009914316	0.01048	 0 0 0
W 0.7611000033166185	0.7205260399008568	0.989520045	 0 0 0
W 0.2611	0.22052605569356817	0.510479988	 0 0 0
W 0.7388999713166186	0.7794739536731947	0.489520012	 0 0 0
W 0.7611000033166185	0.27947396009914316	0.489520012	 0 0 0
W 0.2389	0.7205260399008568	0.510479988	 0 0 0
W 0.7388999713166186	0.22052605569356817	0.989520045	 0 0 0
W 0.2611	0.7794739536731947	0.01048	 0 0 0
O 0.229530007	0.007669971152270294	0.00326	 0 0 0
O 0.7704699963166185	0.9923300352007915	0.996739977	 0 0 0
O 0.270469993	0.4923300287748431	0.503260023	 0 0 0
O 0.7295299783166186	0.5076699647992085	0.49674001	 0 0 0
O 0.7704699963166185	0.007669971152270294	0.49674001	 0 0 0
O 0.229530007	0.9923300352007915	0.503260023	 0 0 0
O 0.7295299783166186	0.4923300287748431	0.996739977	 0 0 0
O 0.270469993	0.5076699647992085	0.00326	 0 0 0
O 0.503030015	0.228990001	0.4553743483639954	 0 0 0
O 0.496969985	0.7710099798906701	0.5446256447954788	 0 0 0
O 0.996970018	0.271009968	0.9553743813639953	 0 0 0
O 0.003030062	0.7289900128906701	0.04462564544008709	 0 0 0
O 0.496969985	0.228990001	0.04462564544008709	 0 0 0
O 0.503030015	0.7710099798906701	0.9553743813639953	 0 0 0
O 0.003030062	0.271009968	0.5446256447954788	 0 0 0
O 0.996970018	0.7289900128906701	0.4553743483639954	 0 0 0
O 0.7053743678879026	0.245409992	0.7454000273166186	 0 0 0
O 0.29462563895262317	0.7545900658906701	0.254599993	 0 0 0
O 0.7946256574788603	0.254590008	0.245399958	 0 0 0
O 0.2053743643639954	0.7454099888906701	0.7545999473166185	 0 0 0
O 0.29462563895262317	0.245409992	0.7545999473166185	 0 0 0
O 0.7053743678879026	0.7545900658906701	0.245399958	 0 0 0
O 0.2053743643639954	0.254590008	0.254599993	 0 0 0
O 0.7946256574788603	0.7454099888906701	0.7454000273166186	 0 0 0

K_POINTS automatic
6 6 6 0 0 0
