
&CONTROL
    calculation   = 'vc-relax'
    restart_mode  = 'from_scratch'
    prefix        = 'Landau_18'
    pseudo_dir    = '/cluster/scratch/mnoe/QE/pps'
    outdir        = './'
    forc_conv_thr = 1.0d-7
    etot_conv_thr = 1.0d-7

/
&SYSTEM
    ibrav       = 0
    nat         = 32
    ntyp        = 2
    ecutwfc     = 120
    occupations = 'smearing'
    degauss     = 7.35d-4
    tot_charge  = -0.0
/
&ELECTRONS
    conv_thr    = 1.0d-8
    diagonalization = 'david'
/


&IONS
ion_dynamics = 'bfgs'
/

&CELL
cell_dynamics = 'bfgs'
cell_dofree = 'all'
/
CELL_PARAMETERS angstrom
        7.3236460686         0.0000000000         0.0000000000
        0.0000000000         7.3236460686         0.0000000000
        0.0000000000         0.0000000000         7.7495899200

ATOMIC_SPECIES
W 183.84 W_ONCV_LDA-4.0.upf
O 15.9994 O_ONCV_LDA-3.0.upf

ATOMIC_POSITIONS crystal
W 0.242200005         0.241789994         0.218119991 0 0 0
W 0.757799962         0.758210006         0.218119991 0 0 0
W 0.241789994         0.757799962         0.781880024 0 0 0
W 0.758210006         0.242200005         0.781880024 0 0 0
W 0.257799979         0.741790027         0.281880024 0 0 0
W 0.742200005         0.258210006         0.281880024 0 0 0
W 0.258210006         0.257799979         0.718119976 0 0 0
W 0.741790027         0.742200005         0.718119976 0 0 0
O 0.233370001         0.233449997         0.491670026 0 0 0
O 0.766629999         0.766550035         0.491670026 0 0 0
O 0.233449997         0.766629999         0.508329974 0 0 0
O 0.766550035         0.233370001         0.508329974 0 0 0
O 0.266629999         0.733449997         0.008329987 0 0 0
O 0.733370033         0.266550003         0.008329987 0 0 0
O 0.266550003         0.266629999         0.991670026 0 0 0
O 0.733449997         0.733370033         0.991670026 0 0 0
O 0.199410008         0.497729978         0.264059984 0 0 0
O 0.800589976         0.502269989         0.264059984 0 0 0
O 0.497729978         0.800589976         0.735939954 0 0 0
O 0.502269989         0.199410008         0.735939954 0 0 0
O 0.300589976         0.997730011         0.235940016 0 0 0
O 0.699409992         0.002270013         0.235940016 0 0 0
O 0.002270013         0.300589976         0.764060046 0 0 0
O 0.997730011         0.699409992         0.764060046 0 0 0
O 0.996529964         0.199410008         0.230130001 0 0 0
O 0.003470003         0.800589976         0.230130001 0 0 0
O 0.199410008         0.003470003         0.769869984 0 0 0
O 0.800589976         0.996529964         0.769869984 0 0 0
O 0.503470003         0.699409992         0.269869984 0 0 0
O 0.496530062         0.300589976         0.269869984 0 0 0
O 0.300589976         0.503470003         0.730130016 0 0 0
O 0.699409992         0.496530062         0.730130016 0 0 0

K_POINTS automatic
6 6 6 0 0 0
