&CONTROL
    calculation   = 'scf'
    restart_mode  = 'from_scratch'
    prefix        = 'Landau_33'
    pseudo_dir    = '/cluster/scratch/mnoe/QE/pps'
    outdir        = './'
/
&SYSTEM
    ibrav       = 0
    nat         = 32
    ntyp        = 2
    ecutwfc     = 120
    occupations = 'smearing'
    degauss     = 7.35d-4
    tot_charge  = -0.20
/
&ELECTRONS
    conv_thr    = 1.0d-8
    diagonalization = 'david'
/

CELL_PARAMETERS angstrom
   7.349962689   0.000000000   0.000000000
   0.000000000   7.548811617   0.000000000
   0.000000000   0.000000000   7.349962689

ATOMIC_SPECIES
W 183.84 W_ONCV_LDA-4.0.upf
O 15.9994 O_ONCV_LDA-3.0.upf

ATOMIC_POSITIONS crystal
W 0.27966997800000004	0.281860003	0.250849949	
W -0.25084990500000004	0.718139997	-0.7203300050000001	
W 0.220330005	0.218140012	0.750849971	
W 0.750849949	0.781859972	0.779669962	
W 0.720330049	0.281860003	0.7491499800000001	
W 0.25084998699999994	0.718139997	0.720329989	
W -0.220330005	0.218140012	-0.7508499050000002	
W 0.2491499960000001	0.781859972	0.22033004899999997	
O 0.28262999800000005	0.00832	0.27367002300000004	
O -0.273669999	0.991680023	-0.7173699530000001	
O 0.21736998499999993	0.491679992	0.773670031	
O 0.773670023	0.508319977	0.7826300150000001	
O 0.717369977	0.00832	0.7263299860000001	
O 0.27367001399999996	0.991680023	0.717370002	
O -0.21736995299999995	0.491679992	-0.7736699990000001	
O 0.22632996900000002	0.508319977	0.217369977	
O 0.48950002299999995	0.285190013	0.6995400039999999	
O 0.49784001099999986	0.72742991	0.800459963	
O -0.9894999579999999	0.21481001899999996	1.199540037	
O 0.002160074999999994	0.772569938	0.300460012	
O 0.5104999769999999	0.285190013	0.300460012	
O 0.502159989	0.72742991	1.199540037	
O -0.010499956999999938	0.21481001899999996	0.800459963	
O -1.00215999	0.772569938	0.6995400039999999	
O 0.6995400369999999	0.22743001699999998	2.002159957	
O 0.300459996	0.714809927	0.48949999000000005	
O 0.800459963	0.272570015	0.502160022	
O 0.19954001999999996	0.785189921	1.9894999909999997	
O 0.300459996	0.22743001699999998	0.9978399579999999	
O 0.699540037	0.714809927	0.5105000099999999	
O 0.19954002	0.272570015	0.497839978	
O 0.800459963	0.785189921	1.010499924	

K_POINTS automatic
6 6 6 0 0 0
