&CONTROL
    calculation   = 'scf'
    restart_mode  = 'from_scratch'
    prefix        = 'Landau_38'
    pseudo_dir    = '/cluster/scratch/mnoe/QE/pps'
    outdir        = './'
/
&SYSTEM
    ibrav       = 0
    nat         = 32
    ntyp        = 2
    ecutwfc     = 120
    occupations = 'smearing'
    degauss     = 7.35d-4
    tot_charge  = -0.15
/
&ELECTRONS
    conv_thr    = 1.0d-8
    diagonalization = 'david'
/

CELL_PARAMETERS angstrom
   7.464031368   0.000000000   0.000000000
   0.000000000   7.505575018   0.000000000
   0.000000000   0.000000000   7.409266675

ATOMIC_SPECIES
W 183.84 W_ONCV_LDA-4.0.upf
O 15.9994 O_ONCV_LDA-3.0.upf

ATOMIC_POSITIONS crystal
W        0.232429994	0.29476478932000005	0.0166	
W        0.76756999	0.70523521068	0.983399982	
W        0.267570023	0.20523520858	0.516600018	
W        0.73243001	0.79476475832	0.483399982	
W       0.76756999	0.29476478932000005	0.483399982	
W       0.232429994	0.70523521068	0.516600018	
W       0.73243001	0.20523520858	0.983399982	
W       0.267570023	0.79476475832	0.0166	
O        0.217580004	0.03273880114	0.00516	
O        0.782419996	0.96726125264	0.994840012	
O        0.282419996	0.4672611863	0.505159988	
O        0.717580004	0.5327388180400001	0.494840012	
O        0.782419996	0.03273880114	0.494840012	
O        0.217580004	0.96726125264	0.505159988	
O        0.717580004	0.4672611863	0.994840012	
O        0.282419996	0.5327388180400001	0.00516	
O    0.504800017	0.216739997	0.5162414496000001	
O    0.495199983	0.783260019	0.48375859149999995	
O    0.995199951	0.283259988	1.01624142788	
O    0.004800081	0.716740012	-0.016241383440000007	
O   0.495199983	0.216739997	-0.016241383440000007	
O   0.504800017	0.783260019	1.01624142788	
O   0.004800081	0.283259988	0.48375859149999995	
O   0.995199951	0.716740012	0.5162414496000001	
O   0.76624152022	0.24274001	0.742710007	
O   0.23375860512000002	0.757259944	0.25729001	
O   0.7337585538799999	0.25725999	0.24270999	
O   0.26624146674	0.742740026	0.757289993	
O   0.23375860512000002	0.24274001	0.757289993	
O   0.76624152022	0.757259944	0.24270999	
O   0.26624146674	0.25725999	0.25729001	
O   0.7337585538799999	0.742740026	0.742710007	

K_POINTS automatic
6 6 6 0 0 0
