
&CONTROL
    calculation   = 'vc-relax'
    restart_mode  = 'from_scratch'
    prefix        = 'Landau_21'
    pseudo_dir    = '/cluster/scratch/mnoe/QE/pps'
    outdir        = './'
    forc_conv_thr = 1.0d-7
    etot_conv_thr = 1.0d-7

/
&SYSTEM
    ibrav       = 0
    nat         = 32
    ntyp        = 2
    ecutwfc     = 120
    occupations = 'smearing'
    degauss     = 7.35d-4
    tot_charge  = -0.0
/
&ELECTRONS
    conv_thr    = 1.0d-8
    diagonalization = 'david'
/


&IONS
ion_dynamics = 'bfgs'
/

&CELL
cell_dynamics = 'bfgs'
cell_dofree = 'all'
/
CELL_PARAMETERS angstrom
        7.3236460686         0.0000000000         0.0000000000
        0.0000000000         7.7495899200         0.0000000000
        0.0000000000         0.0000000000         7.3236460686

ATOMIC_SPECIES
W 183.84 W_ONCV_LDA-4.0.upf
O 15.9994 O_ONCV_LDA-3.0.upf

ATOMIC_POSITIONS crystal
0.240290009	0.28376057238526003	0.009170001	 0 0 0
0.759710007	0.71623942761474	0.990830031	 0 0 0
0.259710007	0.216239440096315	0.509170002	 0 0 0
0.740289993	0.78376054138526	0.490829998	 0 0 0
0.759710007	0.28376057238526003	0.490829998	 0 0 0
0.240290009	0.71623942761474	0.509170002	 0 0 0
0.740289993	0.216239440096315	0.990830031	 0 0 0
0.259710007	0.78376054138526	0.009170001	 0 0 0
0.232080001	0.011916311067895	0.00285	 0 0 0
0.767920032	0.98808371646527	0.997149987	 0 0 0
0.267920015	0.488083680260525	0.50284998	 0 0 0
0.732079968	0.51191629394422	0.49715002	 0 0 0
0.767920032	0.011916311067895	0.49715002	 0 0 0
0.232080001	0.98808371646527	0.50284998	 0 0 0
0.732079968	0.488083680260525	0.997149987	 0 0 0
0.267920015	0.51191629394422	0.00285	 0 0 0
0.502650022	0.231620002	0.4593635471658	 0 0 0
0.497349978	0.768380013	0.540636430747375	 0 0 0
0.997349946	0.268379982	0.95936357210684	 0 0 0
0.002650022	0.731620018	0.040636476221579995	 0 0 0
0.497349978	0.231620002	0.040636476221579995	 0 0 0
0.502650022	0.768380013	0.95936357210684	 0 0 0
0.002650022	0.268379982	0.540636430747375	 0 0 0
0.997349946	0.731620018	0.4593635471658	 0 0 0
0.709363585706335	0.245989997	0.745970029	 0 0 0
0.29063646089316003	0.75401005	0.254029987	 0 0 0
0.79063642520684	0.254010019	0.245970013	 0 0 0
0.20936356333369502	0.745989981	0.754029971	 0 0 0
0.29063646089316003	0.245989997	0.754029971	 0 0 0
0.709363585706335	0.75401005	0.245970013	 0 0 0
0.20936356333369502	0.254010019	0.254029987	 0 0 0
0.79063642520684	0.745989981	0.745970029	 0 0 0

K_POINTS automatic
6 6 6 0 0 0
