# Phonon frequency and phonon lifetime in meV 
# Q-point  Mode   Phonon freq (meV)   Phonon linewidth (meV)
        1     1     -0.32615875E-03      0.0000000000E+00
        1     2     -0.32615732E-03      0.0000000000E+00
        1     3     -0.14716050E-03      0.0000000000E+00
        1     4      0.29517523E+01      0.9527810026E-03
        1     5      0.15443898E+02      0.1271799598E-01
        1     6      0.24958139E+02      0.1420896426E-02
        1     7      0.24958139E+02      0.1420896426E-02
        1     8      0.30662303E+02      0.2234027052E+00
        1     9      0.30687661E+02      0.5003038464E-02
        1    10      0.30687661E+02      0.5003038464E-02
        1    11      0.36523368E+02      0.2305086529E-01
        1    12      0.36523368E+02      0.2305086529E-01
        1    13      0.39109194E+02      0.2684831637E-03
        1    14      0.39509380E+02      0.1350815756E-01
        1    15      0.39509380E+02      0.1350815756E-01
        1    16      0.46089022E+02      0.4828430371E-02
        1    17      0.46089022E+02      0.4828430371E-02
        1    18      0.57335324E+02      0.9986619098E-02
        1    19      0.80012100E+02      0.2419463827E-02
        1    20      0.80012100E+02      0.2419463827E-02
        1    21      0.88087157E+02      0.3143727957E-02
        1    22      0.92738471E+02      0.8918081314E-01
        1    23      0.94389411E+02      0.1146522544E-01
        1    24      0.12736938E+03      0.5142973642E-03
        2     1      0.16521158E+00      0.0000000000E+00
        2     2      0.16521158E+00      0.0000000000E+00
        2     3      0.32354713E+00      0.0000000000E+00
        2     4      0.29515250E+01     -0.1128868741E-04
        2     5      0.15451248E+02      0.9330858763E-02
        2     6      0.24960604E+02      0.9801924202E-03
        2     7      0.24960604E+02      0.9801924202E-03
        2     8      0.30662537E+02      0.1708955614E+00
        2     9      0.30682259E+02      0.5988289560E-02
        2    10      0.30682259E+02      0.5988289560E-02
        2    11      0.36523608E+02      0.2115786186E-01
        2    12      0.36523608E+02      0.2115786186E-01
        2    13      0.39117417E+02      0.2967756757E-02
        2    14      0.39508890E+02      0.1235959573E-01
        2    15      0.39508890E+02      0.1235959573E-01
        2    16      0.46092321E+02      0.4921069872E-02
        2    17      0.46092321E+02      0.4921069872E-02
        2    18      0.57335229E+02      0.1013772489E-01
        2    19      0.80011595E+02      0.2442674939E-02
        2    20      0.80011595E+02      0.2442674939E-02
        2    21      0.88086138E+02      0.3342426512E-02
        2    22      0.92733086E+02      0.9978659941E-01
        2    23      0.94417834E+02      0.1254861564E-01
        2    24      0.12737044E+03      0.5328601348E-03
        3     1      0.33024771E+00      0.0000000000E+00
        3     2      0.33024771E+00      0.0000000000E+00
        3     3      0.64792741E+00     -0.3365170107E-02
        3     4      0.29508430E+01     -0.6663871244E-04
        3     5      0.15473236E+02      0.4003138272E-01
        3     6      0.24967990E+02      0.9564194366E-03
        3     7      0.24967990E+02      0.9564194366E-03
        3     8      0.30663239E+02      0.6264078831E-01
        3     9      0.30666075E+02      0.6264078831E-01
        3    10      0.30666075E+02      0.6264078831E-01
        3    11      0.36524322E+02      0.2010577634E-01
        3    12      0.36524322E+02      0.2010577634E-01
        3    13      0.39142028E+02      0.4517766659E-01
        3    14      0.39507426E+02      0.1170294754E-01
        3    15      0.39507426E+02      0.1170294754E-01
        3    16      0.46102199E+02      0.6287015852E-02
        3    17      0.46102199E+02      0.6287015852E-02
        3    18      0.57334943E+02      0.1029977113E-01
        3    19      0.80010081E+02      0.2415023576E-02
        3    20      0.80010081E+02      0.2415023576E-02
        3    21      0.88083080E+02      0.3425238103E-02
        3    22      0.92718666E+02      0.1055393420E+00
        3    23      0.94501294E+02      0.1436439797E-01
        3    24      0.12737361E+03      0.6130116364E-03
        4     1      0.49493255E+00      0.0000000000E+00
        4     2      0.49493255E+00      0.0000000000E+00
        4     3      0.97394555E+00     -0.1363497878E-01
        4     4      0.29497060E+01     -0.1460272182E-03
        4     5      0.15509676E+02      0.3930835796E-01
        4     6      0.24980270E+02      0.1159224909E-02
        4     7      0.24980270E+02      0.1159224909E-02
        4     8      0.30639174E+02      0.1283731836E-01
        4     9      0.30639174E+02      0.1283731836E-01
        4    10      0.30664408E+02      0.1675415417E+00
        4    11      0.36525500E+02      0.1734535077E-01
        4    12      0.36525500E+02      0.1734535077E-01
        4    13      0.39182847E+02      0.1664555103E+00
        4    14      0.39505009E+02      0.9975986472E-02
        4    15      0.39505009E+02      0.9975986472E-02
        4    16      0.46118604E+02      0.8068836108E-02
        4    17      0.46118604E+02      0.8068836108E-02
        4    18      0.57334468E+02      0.1024431798E-01
        4    19      0.80007559E+02      0.2228968473E-02
        4    20      0.80007559E+02      0.2228968473E-02
        4    21      0.88077985E+02      0.3490666109E-02
        4    22      0.92699547E+02      0.1171161900E+00
        4    23      0.94635236E+02      0.3007095076E-01
        4    24      0.12737889E+03      0.6564891625E-03
        5     1      0.65909225E+00      0.1363856245E-04
        5     2      0.65909225E+00      0.1363856245E-04
        5     3      0.13023513E+01     -0.1279677625E-01
        5     4      0.29481132E+01      0.1851774214E-03
        5     5      0.15560266E+02      0.5382773024E-01
        5     6      0.24997394E+02      0.1418716323E-02
        5     7      0.24997394E+02      0.1418716323E-02
        5     8      0.30601662E+02      0.1165926236E-01
        5     9      0.30601662E+02      0.1165926236E-01
        5    10      0.30666039E+02      0.1720217350E+00
        5    11      0.36527121E+02      0.1759284935E-01
        5    12      0.36527121E+02      0.1759284935E-01
        5    13      0.39239576E+02      0.3010005699E+00
        5    14      0.39501675E+02      0.9870253404E-02
        5    15      0.39501675E+02      0.9870253404E-02
        5    16      0.46141448E+02      0.8192920278E-02
        5    17      0.46141448E+02      0.8192920278E-02
        5    18      0.57333804E+02      0.9595148510E-02
        5    19      0.80004032E+02      0.2045707644E-02
        5    20      0.80004032E+02      0.2045707644E-02
        5    21      0.88070855E+02      0.3208187866E-02
        5    22      0.92680867E+02      0.1412990572E+00
        5    23      0.94814160E+02      0.1578635812E+00
        5    24      0.12738630E+03      0.6516789394E-03
        6     1      0.82255486E+00      0.4663288154E-04
        6     2      0.82255486E+00      0.4663288154E-04
        6     3      0.16338162E+01     -0.1057333001E-01
        6     4      0.29460637E+01      0.1629858601E-03
        6     5      0.15624601E+02      0.7045199746E-01
        6     6      0.25019295E+02      0.1498477551E-02
        6     7      0.25019295E+02      0.1498477551E-02
        6     8      0.30553688E+02      0.1022010223E-01
        6     9      0.30553688E+02      0.1022010223E-01
        6    10      0.30668130E+02      0.1727483174E+00
        6    11      0.36529160E+02      0.1876897650E-01
        6    12      0.36529160E+02      0.1876897650E-01
        6    13      0.39311807E+02      0.4031735675E+00
        6    14      0.39497472E+02      0.1024364280E-01
        6    15      0.39497472E+02      0.1024364280E-01
        6    16      0.46170612E+02      0.7783237025E-02
        6    17      0.46170612E+02      0.7783237025E-02
        6    18      0.57332950E+02      0.1001423469E-01
        6    19      0.79999504E+02      0.1865139774E-02
        6    20      0.79999504E+02      0.1865139774E-02
        6    21      0.88061696E+02      0.3148629151E-02
        6    22      0.92667189E+02      0.2474035463E+00
        6    23      0.95032995E+02      0.5354021066E+00
        6    24      0.12739583E+03      0.8405421409E-03
        7     1      0.98515105E+00      0.8566685500E-04
        7     2      0.98515105E+00      0.8566685500E-04
        7     3      0.19689139E+01     -0.1553332482E-01
        7     4      0.29435565E+01      0.1712759471E-03
        7     5      0.15702181E+02      0.7421925106E-01
        7     6      0.25045881E+02      0.1659960561E-02
        7     7      0.25045881E+02      0.1659960561E-02
        7     8      0.30495445E+02      0.9869412724E-02
        7     9      0.30495445E+02      0.9869412724E-02
        7    10      0.30670675E+02      0.1896426168E+00
        7    11      0.36531584E+02      0.1851893964E-01
        7    12      0.36531584E+02      0.1851893964E-01
        7    13      0.39399027E+02      0.5169319141E+00
        7    14      0.39492458E+02      0.1018660883E-01
        7    15      0.39492458E+02      0.1018660883E-01
        7    16      0.46205945E+02      0.7246629698E-02
        7    17      0.46205945E+02      0.7246629698E-02
        7    18      0.57331908E+02      0.1021063588E-01
        7    19      0.79993980E+02      0.1698740489E-02
        7    20      0.79993980E+02      0.1698740489E-02
        7    21      0.88050512E+02      0.2842691149E-02
        7    22      0.92661967E+02      0.3852896944E+00
        7    23      0.95287642E+02      0.9395550513E+00
        7    24      0.12740749E+03      0.1526211571E-02
        8     1      0.11467147E+01      0.9047789381E-04
        8     2      0.11467147E+01      0.9047789381E-04
        8     3      0.23081072E+01     -0.1351495879E-01
        8     4      0.29405901E+01      0.6295124409E-03
        8     5      0.15792434E+02      0.8250009623E-01
        8     6      0.25077039E+02      0.1842538676E-02
        8     7      0.25077039E+02      0.1842538676E-02
        8     8      0.30427166E+02      0.1071011099E-01
        8     9      0.30427166E+02      0.1071011099E-01
        8    10      0.30673668E+02      0.2115092358E+00
        8    11      0.36534358E+02      0.1970804126E-01
        8    12      0.36534358E+02      0.1970804126E-01
        8    13      0.39486703E+02      0.1073800578E-01
        8    14      0.39486703E+02      0.1073800578E-01
        8    15      0.39500623E+02      0.5972836568E+00
        8    16      0.46247270E+02      0.6960050725E-02
        8    17      0.46247270E+02      0.6960050725E-02
        8    18      0.57330678E+02      0.9582846898E-02
        8    19      0.79987465E+02      0.1760263433E-02
        8    20      0.79987465E+02      0.1760263433E-02
        8    21      0.88037309E+02      0.2848373857E-02
        8    22      0.92667557E+02      0.5569685497E+00
        8    23      0.95574962E+02      0.1361430434E+01
        8    24      0.12742129E+03      0.2097700435E-02
        9     1      0.13070836E+01      0.1191894659E-03
        9     2      0.13070836E+01      0.1191894659E-03
        9     3      0.26517383E+01     -0.1249561802E-01
        9     4      0.29371629E+01      0.4563049655E-03
        9     5      0.15894726E+02      0.8879131935E-01
        9     6      0.25112624E+02      0.1705035920E-02
        9     7      0.25112624E+02      0.1705035920E-02
        9     8      0.30349128E+02      0.9750251209E-02
        9     9      0.30349128E+02      0.9750251209E-02
        9    10      0.30677101E+02      0.1969136131E+00
        9    11      0.36537438E+02      0.1986356004E-01
        9    12      0.36537438E+02      0.1986356004E-01
        9    13      0.39480284E+02      0.1101414703E-01
        9    14      0.39480284E+02      0.1101414703E-01
        9    15      0.39615894E+02      0.6608778114E+00
        9    16      0.46294385E+02      0.6598672139E-02
        9    17      0.46294385E+02      0.6598672139E-02
        9    18      0.57329262E+02      0.8929310846E-02
        9    19      0.79979966E+02      0.1758014789E-02
        9    20      0.79979966E+02      0.1758014789E-02
        9    21      0.88022095E+02      0.2946421512E-02
        9    22      0.92685429E+02      0.6814011991E+00
        9    23      0.95892567E+02      0.1707174703E+01
        9    24      0.12743723E+03      0.2217712878E-02
       10     1      0.14660998E+01      0.1737401267E-03
       10     2      0.14660998E+01      0.1737401267E-03
       10     3      0.29332730E+01      0.7764310808E-03
       10     4      0.30000260E+01     -0.1249774485E-01
       10     5      0.16008388E+02      0.8098279542E-01
       10     6      0.25152462E+02      0.1512546658E-02
       10     7      0.25152462E+02      0.1512546658E-02
       10     8      0.30261651E+02      0.9950273428E-02
       10     9      0.30261651E+02      0.9950273428E-02
       10    10      0.30680968E+02      0.1923553255E+00
       10    11      0.36540782E+02      0.1819678839E-01
       10    12      0.36540782E+02      0.1819678839E-01
       10    13      0.39473283E+02      0.1024902872E-01
       10    14      0.39473283E+02      0.1024902872E-01
       10    15      0.39744062E+02      0.7364777200E+00
       10    16      0.46347068E+02      0.6389180479E-02
       10    17      0.46347068E+02      0.6389180479E-02
       10    18      0.57327659E+02      0.7816717269E-02
       10    19      0.79971493E+02      0.1740798063E-02
       10    20      0.79971493E+02      0.1740798063E-02
       10    21      0.88004878E+02      0.3085071792E-02
       10    22      0.92716397E+02      0.7728273061E+00
       10    23      0.96238599E+02      0.2009261515E+01
       10    24      0.12745534E+03      0.2312221479E-02
       11     1      0.16236105E+01      0.5213979465E-03
       11     2      0.16236105E+01      0.5213979465E-03
       11     3      0.29289183E+01      0.2917293932E-03
       11     4      0.33530665E+01     -0.1249916036E-02
       11     5      0.16132723E+02      0.9347469882E-01
       11     6      0.25196342E+02      0.1580181255E-02
       11     7      0.25196342E+02      0.1580181255E-02
       11     8      0.30165105E+02      0.9471595661E-02
       11     9      0.30165105E+02      0.9471595661E-02
       11    10      0.30685257E+02      0.1870712970E+00
       11    11      0.36544343E+02      0.1388413397E-01
       11    12      0.36544343E+02      0.1388413397E-01
       11    13      0.39465790E+02      0.7864748928E-02
       11    14      0.39465790E+02      0.7864748928E-02
       11    15      0.39884279E+02      0.7972360787E+00
       11    16      0.46405079E+02      0.6066422502E-02
       11    17      0.46405079E+02      0.6066422502E-02
       11    18      0.57325872E+02      0.6842224088E-02
       11    19      0.79962052E+02      0.1776803439E-02
       11    20      0.79962052E+02      0.1776803439E-02
       11    21      0.87985669E+02      0.3301131505E-02
       11    22      0.92760806E+02      0.8511876263E+00
       11    23      0.96611542E+02      0.2302689873E+01
       11    24      0.12747561E+03      0.2603102459E-02
       12     1      0.17794680E+01      0.6582472330E-03
       12     2      0.17794680E+01      0.6582472330E-03
       12     3      0.29240966E+01      0.1059896030E-02
       12     4      0.37108381E+01      0.5731483564E-02
       12     5      0.16267029E+02      0.1102600053E+00
       12     6      0.25244008E+02      0.1858886687E-02
       12     7      0.25244008E+02      0.1858886687E-02
       12     8      0.30059906E+02      0.1042098214E-01
       12     9      0.30059906E+02      0.1042098214E-01
       12    10      0.30689959E+02      0.2120099004E+00
       12    11      0.36548074E+02      0.1262297984E-01
       12    12      0.36548074E+02      0.1262297984E-01
       12    13      0.39457894E+02      0.7010163588E-02
       12    14      0.39457894E+02      0.7010163588E-02
       12    15      0.40035640E+02      0.8076592078E+00
       12    16      0.46468163E+02      0.5862696884E-02
       12    17      0.46468163E+02      0.5862696884E-02
       12    18      0.57323902E+02      0.6177614575E-02
       12    19      0.79951656E+02      0.1635159736E-02
       12    20      0.79951656E+02      0.1635159736E-02
       12    21      0.87964478E+02      0.3415789544E-02
       12    22      0.92818671E+02      0.8554997270E+00
       12    23      0.97010095E+02      0.2506616329E+01
       12    24      0.12749805E+03      0.3056967413E-02
       13     1      0.19335310E+01      0.7360606667E-03
       13     2      0.19335310E+01      0.7360606667E-03
       13     3      0.29188055E+01      0.4944008568E-04
       13     4      0.40732088E+01     -0.1580992623E-01
       13     5      0.16410611E+02      0.9947251467E-01
       13     6      0.25295149E+02      0.1973199212E-02
       13     7      0.25295149E+02      0.1973199212E-02
       13     8      0.29946533E+02      0.1041498911E-01
       13     9      0.29946533E+02      0.1041498911E-01
       13    10      0.30695062E+02      0.2247002259E+00
       13    11      0.36551928E+02      0.1321947573E-01
       13    12      0.36551928E+02      0.1321947573E-01
       13    13      0.39449690E+02      0.7516726090E-02
       13    14      0.39449690E+02      0.7516726090E-02
       13    15      0.40197197E+02      0.7997649423E+00
       13    16      0.46536055E+02      0.6025223396E-02
       13    17      0.46536055E+02      0.6025223396E-02
       13    18      0.57321750E+02      0.5445761512E-02
       13    19      0.79940314E+02      0.1523192626E-02
       13    20      0.79940314E+02      0.1523192626E-02
       13    21      0.87941317E+02      0.3588571652E-02
       13    22      0.92889772E+02      0.8082562930E+00
       13    23      0.97433081E+02      0.2589867720E+01
       13    24      0.12752269E+03      0.3271142750E-02
       14     1      0.20856642E+01      0.7403804127E-03
       14     2      0.20856642E+01      0.7403804127E-03
       14     3      0.29130422E+01      0.1120756755E-03
       14     4      0.44399467E+01     -0.3307776587E-01
       14     5      0.16562793E+02      0.8701925623E-01
       14     6      0.25349390E+02      0.2089918348E-02
       14     7      0.25349390E+02      0.2089918348E-02
       14     8      0.29825531E+02      0.9597303186E-02
       14     9      0.29825531E+02      0.9597303186E-02
       14    10      0.30700555E+02      0.2244395239E+00
       14    11      0.36555858E+02      0.1269731000E-01
       14    12      0.36555858E+02      0.1269731000E-01
       14    13      0.39441268E+02      0.7277844669E-02
       14    14      0.39441268E+02      0.7277844669E-02
       14    15      0.40367966E+02      0.8234732794E+00
       14    16      0.46608483E+02      0.5926920328E-02
       14    17      0.46608483E+02      0.5926920328E-02
       14    18      0.57319417E+02      0.5249793813E-02
       14    19      0.79928038E+02      0.1592235670E-02
       14    20      0.79928038E+02      0.1592235670E-02
       14    21      0.87916201E+02      0.3833170004E-02
       14    22      0.92973720E+02      0.8130564860E+00
       14    23      0.97879384E+02      0.2772127056E+01
       14    24      0.12754952E+03      0.3624207346E-02
       15     1      0.22357392E+01      0.1086577750E-02
       15     2      0.22357392E+01      0.1086577750E-02
       15     3      0.29068040E+01      0.8147999985E-03
       15     4      0.48107302E+01     -0.2838161300E-01
       15     5      0.16722927E+02      0.9160087557E-01
       15     6      0.25406271E+02      0.2126805200E-02
       15     7      0.25406271E+02      0.2126805200E-02
       15     8      0.29697527E+02      0.8240328581E-02
       15     9      0.29697527E+02      0.8240328581E-02
       15    10      0.30706424E+02      0.2010333056E+00
       15    11      0.36559820E+02      0.1063356970E-01
       15    12      0.36559820E+02      0.1063356970E-01
       15    13      0.39432721E+02      0.6211790486E-02
       15    14      0.39432721E+02      0.6211790486E-02
       15    15      0.40546940E+02      0.9506947024E+00
       15    16      0.46685171E+02      0.5112004320E-02
       15    17      0.46685171E+02      0.5112004320E-02
       15    18      0.57316906E+02      0.5215334839E-02
       15    19      0.79914843E+02      0.1628448799E-02
       15    20      0.79914843E+02      0.1628448799E-02
       15    21      0.87889145E+02      0.4140488709E-02
       15    22      0.93070010E+02      0.8267441561E+00
       15    23      0.98347913E+02      0.3042797572E+01
       15    24      0.12757856E+03      0.4733747175E-02
       16     1      0.23836344E+01      0.1255963303E-02
       16     2      0.23836344E+01      0.1255963303E-02
       16     3      0.29000878E+01      0.4624955526E-03
       16     4      0.51851601E+01     -0.3013708217E-01
       16     5      0.16890404E+02      0.9078443095E-01
       16     6      0.25465223E+02      0.2003246358E-02
       16     7      0.25465223E+02      0.2003246358E-02
       16     8      0.29563255E+02      0.6785425230E-02
       16     9      0.29563255E+02      0.6785425230E-02
       16    10      0.30712654E+02      0.1722465762E+00
       16    11      0.36563769E+02      0.8118173256E-02
       16    12      0.36563769E+02      0.8118173256E-02
       16    13      0.39424138E+02      0.4804272237E-02
       16    14      0.39424138E+02      0.4804272237E-02
       16    15      0.40733100E+02      0.9774494463E+00
       16    16      0.46765840E+02      0.4788870088E-02
       16    17      0.46765840E+02      0.4788870088E-02
       16    18      0.57314219E+02      0.5494327973E-02
       16    19      0.79900741E+02      0.1558234546E-02
       16    20      0.79900741E+02      0.1558234546E-02
       16    21      0.87860163E+02      0.4238064786E-02
       16    22      0.93178047E+02      0.7750999224E+00
       16    23      0.98837570E+02      0.3093512644E+01
       16    24      0.12760981E+03      0.6582124592E-02
       17     1      0.25292360E+01      0.1395652736E-02
       17     2      0.25292360E+01      0.1395652736E-02
       17     3      0.28928907E+01      0.6706400564E-03
       17     4      0.55627710E+01     -0.2399007854E-01
       17     5      0.17064654E+02      0.9943259514E-01
       17     6      0.25525542E+02      0.2333572965E-02
       17     7      0.25525542E+02      0.2333572965E-02
       17     8      0.29423579E+02      0.6604826811E-02
       17     9      0.29423579E+02      0.6604826811E-02
       17    10      0.30719232E+02      0.1921679537E+00
       17    11      0.36567666E+02      0.7874834764E-02
       17    12      0.36567666E+02      0.7874834764E-02
       17    13      0.39415605E+02      0.4706606446E-02
       17    14      0.39415605E+02      0.4706606446E-02
       17    15      0.40925423E+02      0.1003413125E+01
       17    16      0.46850212E+02      0.5011792515E-02
       17    17      0.46850212E+02      0.5011792515E-02
       17    18      0.57311356E+02      0.6089185820E-02
       17    19      0.79885749E+02      0.1485858751E-02
       17    20      0.79885749E+02      0.1485858751E-02
       17    21      0.87829274E+02      0.4714632346E-02
       17    22      0.93297177E+02      0.7634776732E+00
       17    23      0.99347241E+02      0.3208600461E+01
       17    24      0.12764329E+03      0.8342648660E-02
       18     1      0.26724376E+01      0.2007950723E-02
       18     2      0.26724376E+01      0.2007950723E-02
       18     3      0.28852094E+01      0.1179123573E-02
       18     4      0.59430423E+01     -0.1746098715E-01
       18     5      0.17245157E+02      0.1118872766E+00
       18     6      0.25586341E+02      0.3173100123E-02
       18     7      0.25586341E+02      0.3173100123E-02
       18     8      0.29279539E+02      0.7190041203E-02
       18     9      0.29279539E+02      0.7190041203E-02
       18    10      0.30726142E+02      0.2353405241E+00
       18    11      0.36571470E+02      0.7149031965E-02
       18    12      0.36571470E+02      0.7149031965E-02
       18    13      0.39407205E+02      0.4160492168E-02
       18    14      0.39407205E+02      0.4160492168E-02
       18    15      0.41122894E+02      0.1050365713E+01
       18    16      0.46938013E+02      0.5052015984E-02
       18    17      0.46938013E+02      0.5052015984E-02
       18    18      0.57308321E+02      0.6269275345E-02
       18    19      0.79869881E+02      0.1337557862E-02
       18    20      0.79869881E+02      0.1337557862E-02
       18    21      0.87796497E+02      0.4945101556E-02
       18    22      0.93426703E+02      0.7711158895E+00
       18    23      0.99875780E+02      0.3468229727E+01
       18    24      0.12767899E+03      0.1008885333E-01
       19     1      0.28131405E+01      0.2279055041E-02
       19     2      0.28131405E+01      0.2279055041E-02
       19     3      0.28770406E+01      0.1606236139E-02
       19     4      0.63254091E+01     -0.1112384142E-01
       19     5      0.17431441E+02      0.1179191589E+00
       19     6      0.25646493E+02      0.3393721508E-02
       19     7      0.25646493E+02      0.3393721508E-02
       19     8      0.29132406E+02      0.7439066465E-02
       19     9      0.29132406E+02      0.7439066465E-02
       19    10      0.30733367E+02      0.2526544859E+00
       19    11      0.36575147E+02      0.7610183068E-02
       19    12      0.36575147E+02      0.7610183068E-02
       19    13      0.39399018E+02      0.4769948994E-02
       19    14      0.39399018E+02      0.4769948994E-02
       19    15      0.41324509E+02      0.1027296336E+01
       19    16      0.47028973E+02      0.4847080390E-02
       19    17      0.47028973E+02      0.4847080390E-02
       19    18      0.57305116E+02      0.6026627107E-02
       19    19      0.79853154E+02      0.1270630148E-02
       19    20      0.79853154E+02      0.1270630148E-02
       19    21      0.87761851E+02      0.5104693423E-02
       19    22      0.93565895E+02      0.7897570950E+00
       19    23      0.10042201E+03      0.3804543683E+01
       19    24      0.12771691E+03      0.1200856671E-01
       20     1      0.28683811E+01      0.1823814218E-02
       20     2      0.29512541E+01      0.2548703831E-02
       20     3      0.29512541E+01      0.2548703831E-02
       20     4      0.67092718E+01      0.2353943245E-01
       20     5      0.17623081E+02      0.1368619512E+00
       20     6      0.25704557E+02      0.3519425940E-02
       20     7      0.25704557E+02      0.3519425940E-02
       20     8      0.28983757E+02      0.7201568647E-02
       20     9      0.28983757E+02      0.7201568647E-02
       20    10      0.30740890E+02      0.2471385876E+00
       20    11      0.36578661E+02      0.5720086438E-02
       20    12      0.36578661E+02      0.5720086438E-02
       20    13      0.39391120E+02      0.3958225171E-02
       20    14      0.39391120E+02      0.3958225171E-02
       20    15      0.41529290E+02      0.9651249302E+00
       20    16      0.47122827E+02      0.4629336998E-02
       20    17      0.47122827E+02      0.4629336998E-02
       20    18      0.57301743E+02      0.6056206736E-02
       20    19      0.79835587E+02      0.1357211941E-02
       20    20      0.79835587E+02      0.1357211941E-02
       20    21      0.87725359E+02      0.5504321389E-02
       20    22      0.93714007E+02      0.8225496609E+00
       20    23      0.10098471E+03      0.4258353399E+01
       20    24      0.12775707E+03      0.1188172230E-01
       21     1      0.28592273E+01      0.1468542934E-02
       21     2      0.30866958E+01      0.2671535102E-02
       21     3      0.30866958E+01      0.2671535102E-02
       21     4      0.70940051E+01      0.1831588185E-01
       21     5      0.17819704E+02      0.1301039691E+00
       21     6      0.25758676E+02      0.3369062988E-02
       21     7      0.25758676E+02      0.3369062988E-02
       21     8      0.28835574E+02      0.6814317698E-02
       21     9      0.28835574E+02      0.6814317698E-02
       21    10      0.30748694E+02      0.2213631714E+00
       21    11      0.36581984E+02      0.4394776919E-02
       21    12      0.36581984E+02      0.4394776919E-02
       21    13      0.39383580E+02      0.3035496052E-02
       21    14      0.39383580E+02      0.3035496052E-02
       21    15      0.41736283E+02      0.9658217523E+00
       21    16      0.47219317E+02      0.4425196454E-02
       21    17      0.47219317E+02      0.4425196454E-02
       21    18      0.57298204E+02      0.6118790197E-02
       21    19      0.79817198E+02      0.1296792630E-02
       21    20      0.79817198E+02      0.1296792630E-02
       21    21      0.87687043E+02      0.5268823182E-02
       21    22      0.93870278E+02      0.7013585363E+00
       21    23      0.10156264E+03      0.4033367450E+01
       21    24      0.12779946E+03      0.1165307134E-01
       22     1      0.28495759E+01      0.1314074998E-02
       22     2      0.32193912E+01      0.2785421874E-02
       22     3      0.32193912E+01      0.2785421874E-02
       22     4      0.74789661E+01      0.2317234545E-01
       22     5      0.18020983E+02      0.1308277178E+00
       22     6      0.25806461E+02      0.3505680014E-02
       22     7      0.25806461E+02      0.3505680014E-02
       22     8      0.28690359E+02      0.6912214734E-02
       22     9      0.28690359E+02      0.6912214734E-02
       22    10      0.30756761E+02      0.2319262044E+00
       22    11      0.36585085E+02      0.4526457756E-02