&CONTROL
    calculation   = 'scf'
    restart_mode  = 'from_scratch'
    prefix        = 'Landau_7'
    pseudo_dir    = '/cluster/scratch/mnoe/QE/pps'
    outdir        = './'
/
&SYSTEM
    ibrav       = 0
    nat         = 32
    ntyp        = 2
    ecutwfc     = 120
    occupations = 'smearing'
    degauss     = 7.35d-4
    tot_charge  = -0.6
/
&ELECTRONS
    conv_thr    = 1.0d-8
    diagonalization = 'david'
/

CELL_PARAMETERS angstrom
   7.339891080   0.000000000   0.000000000
   0.000000000   7.704238652   0.000000000
   0.000000000   0.000000000   7.339891080

ATOMIC_SPECIES
W 183.84 W_ONCV_LDA-4.0.upf
O 15.9994 O_ONCV_LDA-3.0.upf

ATOMIC_POSITIONS crystal
W 0.23741049615	0.28116121813345224	-0.00036049369999999886	
W 0.7503604980355005	0.7188387818665478	-0.012589486350000019	
W 0.26258950385	0.218838797098704	0.49963950385	
W 0.7496395025855006	0.7811611943302949	0.48741049615	
W 0.7625894906855005	0.28116121813345224	0.50036049615	
W 0.24963950385	0.7188387818665478	0.51258950385	
W 0.7374105099355005	0.218838797098704	0.0003605017499999806	
W 0.25036049615	0.7811611943302949	0.0125894944	
O 0.236153993	0.008129630278881446	-0.010044987400000007	
O 0.7600449812355006	-0.008129612154161935	-0.013845989849999992	
O 0.26384598985	0.4918703640426807	0.48995499195	
O 0.7399550088855006	0.508129612154162	0.48615399859999997	
O 0.7638459836855006	0.008129630278881446	0.5100450021	
O 0.23995498635	-0.008129612154161935	0.51384599545	
O 0.7361540064355006	0.4918703640426807	0.010044984950000021	
O 0.2600449965	0.508129612154162	0.013845987400000006	
O 0.5044554979	0.23507250105	0.45124867048974515	
O 0.5009134923	0.7595794993323433	0.5487513041714099	
O -0.004455486700000004	0.26492748844999997	0.9512487034897451	
O -0.0009134870499999989	0.7404205199823433	0.04875133900988084	
O 0.4955445021	0.23507250105	0.04875133900988084	
O 0.49908650769999996	0.7595794993323433	0.9512487034897451	
O 0.004455480400000006	0.26492748844999997	0.5487513041714099	
O 0.0009134807500000004	0.7404205199823433	0.45124867048974515	
O 0.7012486995430895	0.25957948985	0.7490865155355005	
O 0.2987513257957554	0.7649275087823433	0.2544554979	
O 0.7987513078859093	0.24042049964999998	0.24908653045	
O 0.20124868648974517	0.7350725105323432	0.7544555057355006	
O 0.2987513257957554	0.25957948985	0.7509135060855006	
O 0.7012486995430895	0.7649275087823433	0.24554452485000003	
O 0.20124868648974517	0.24042049964999998	0.25091349230000004	
O 0.7987513078859093	0.7350725105323432	0.7455445158855005	

K_POINTS automatic
6 6 6 0 0 0
