W O                                     
   1.00000000000000     
    83.3277702794964483   -0.0311847938371710    0.0012091431517099
    -0.0039028318284916   10.4167140950511818    0.0003314439513343
     0.0000976770844477    0.0002566902537541    7.6241855818962856
   W    O 
   128   384
Selective dynamics
Direct
  0.0177855795628477  0.6501554421192841  0.2787313163948352   T   T   T
  0.0192632414050974  0.1488040652933103  0.7794043730503936   T   T   T
  0.0172969457813224  0.6411745413359747  0.7784426861794789   T   T   T
  0.0195120120161339  0.1399338042120257  0.2794742370521714   T   T   T
  0.0490100237296147  0.8894069432998283  0.7195857978061828   T   T   T
  0.0492455443603873  0.4032895972721947  0.2221604108228518   T   T   T
  0.0503260788093597  0.8877628857615926  0.2197929317476414   T   T   T
  0.0501675845367813  0.4024690042330956  0.7218626939029744   T   T   T
  0.0799738757547871  0.1486780948080971  0.2789538975267551   T   T   T
  0.0814147756700055  0.6509161087372387  0.7794854872852953   T   T   T
  0.0800675523620006  0.1402037756562430  0.7794892934914189   T   T   T
  0.0821352450851559  0.6414252639036446  0.2790015168124690   T   T   T
  0.1112855575621211  0.3917760249045570  0.7202046373451718   T   T   T
  0.1118187200392835  0.9050923670839660  0.2223134686368896   T   T   T
  0.1125891016982210  0.3862928858889089  0.2208121394892843   T   T   T
  0.1127995720176639  0.9007559499356377  0.7217008609224731   T   T   T
  0.1422063839444818  0.6483198630674112  0.2783903257392932   T   T   T
  0.1437145303441979  0.1527511112904528  0.7795185032142596   T   T   T
  0.1428083274872371  0.6396929432966381  0.7792765145638253   T   T   T
  0.1446959521080416  0.1428786797547306  0.2787225275702120   T   T   T
  0.1737004547755322  0.8938535368016008  0.7197703730680750   T   T   T
  0.1743339391085952  0.4065119674438478  0.2216921174254472   T   T   T
  0.1749596225068418  0.8858534705853549  0.2207872359114626   T   T   T
  0.1754423624564607  0.3998370228539167  0.7209003144542144   T   T   T
  0.2045724334968386  0.1487400275793784  0.2783746466186937   T   T   T
  0.2061042959700313  0.6542979925090445  0.7799402011563841   T   T   T
  0.2054795163386091  0.1396905120370579  0.7793638972013761   T   T   T
  0.2071750265889455  0.6441870810049605  0.2789804597450780   T   T   T
  0.2361096141167386  0.3952869626690256  0.7202803232611514   T   T   T
  0.2368059792246619  0.9073170603474162  0.2210370493320540   T   T   T
  0.2373725207235209  0.3865740423220598  0.2212994331596961   T   T   T
  0.2380116592086263  0.8994791627277816  0.7201569811273147   T   T   T
  0.2670335297979572  0.6497289488579960  0.2781683150216916   T   T   T
  0.2685558267536837  0.1553514310587971  0.7796358471492126   T   T   T
  0.2680539315539903  0.6399623467866782  0.7791712678241235   T   T   T
  0.2696000522657671  0.1449424343716235  0.2787532541923817   T   T   T
  0.2985950893237458  0.8958706031594365  0.7206884457314132   T   T   T
  0.2992446960401611  0.4076879742721636  0.2205919868598678   T   T   T
  0.2999065781579885  0.8876576905473891  0.2215740748465143   T   T   T
  0.3005245715845755  0.3998318848242230  0.7197730561315306   T   T   T
  0.3295905145573526  0.1513460308480584  0.2779806881617861   T   T   T
  0.3311258735671783  0.6558121689335562  0.7788825697279699   T   T   T
  0.3305233327883206  0.1406766923042236  0.7786593542350952   T   T   T
  0.3320069251026406  0.6452453817683441  0.2781713028802827   T   T   T
  0.3611487818465086  0.3953720922185561  0.7199293171954934   T   T   T
  0.3616107669273217  0.9078435372635933  0.2198588040818948   T   T   T
  0.3625046866026841  0.3895159026556098  0.2205880464948650   T   T   T
  0.3629577764803475  0.9014794987297348  0.7190629929777479   T   T   T
  0.3922205409808274  0.6535328043706101  0.2772868778113294   T   T   T
  0.3937796938869549  0.1556099748035698  0.7785580673448180   T   T   T
  0.3928473157653860  0.6420131560689070  0.7774148082956817   T   T   T
  0.3943173732575967  0.1450684627354429  0.2779677745353917   T   T   T
  0.4237529222976251  0.8943080938088523  0.7201256315507027   T   T   T
  0.4239182846525555  0.4067637049632790  0.2205424347024335   T   T   T
  0.4251662718052179  0.8919328904833430  0.2202802027918093   T   T   T
  0.4252910049302671  0.4033844023034270  0.7200777482862409   T   T   T
  0.4549706757115694  0.1550376253296399  0.2785655298147104   T   T   T
  0.4564902567128201  0.6551058649759098  0.7790110274304579   T   T   T
  0.4550873151261684  0.1436792855843680  0.7783700068483373   T   T   T
  0.4564946747338267  0.6441319423354350  0.2788841519439352   T   T   T
  0.4863025467859967  0.3926188776884217  0.7209021363542941   T   T   T
  0.4861910208432976  0.9041439991787205  0.2188400408658396   T   T   T
  0.4877317773245919  0.3944020955186738  0.2206400301834270   T   T   T
  0.4876211268063185  0.9060315757074491  0.7190542989931051   T   T   T
  0.5172249101704856  0.6456108333721500  0.7783307837692502   T   T   T
  0.5185885646631627  0.1429946238622340  0.2781561264741693   T   T   T
  0.5176282087853618  0.6565401757665930  0.2788135446728336   T   T   T
  0.5191931527776117  0.1543917401333169  0.7776126443859425   T   T   T
  0.5484275545221380  0.4024793090274745  0.2190850315150790   T   T   T
  0.5489425496626850  0.8909203671009190  0.7212532015024030   T   T   T
  0.5498319419329483  0.4090110026766670  0.7198490584560281   T   T   T
  0.5502568753353955  0.8968277218524344  0.2206508149795512   T   T   T
  0.5794278235898531  0.1476679539129656  0.7784857857986188   T   T   T
  0.5807869488692710  0.6422210451261599  0.2786107705246724   T   T   T
  0.5802808316905458  0.1577491692236992  0.2793349047070148   T   T   T
  0.5818881919424295  0.6532249971676749  0.7777098012053021   T   T   T
  0.6107976522354722  0.9013590864846107  0.2197882615536636   T   T   T
  0.6116064404216245  0.3898707713312492  0.7214017486945726   T   T   T
  0.6121479098760226  0.9109382828404367  0.7208290472318856   T   T   T
  0.6128463009196065  0.3980900108434093  0.2207021804711644   T   T   T
  0.6417612650304064  0.6487004930180473  0.7782809778251153   T   T   T
  0.6432205397607917  0.1412529103851896  0.2794056041398566   T   T   T
  0.6428876271155547  0.6581178791214564  0.2794387873960287   T   T   T
  0.6445329462508090  0.1521227016367662  0.7785420332438943   T   T   T
  0.6732858452573666  0.4005607558784361  0.2204774989035810   T   T   T
  0.6742454819508246  0.8883304230199313  0.7221408780338455   T   T   T
  0.6745550450707263  0.4114942127113252  0.7216420179446813   T   T   T
  0.6754744221962595  0.8980723255841564  0.2212078237139423   T   T   T
  0.7042001891899479  0.1486295608904750  0.7783830579667728   T   T   T
  0.7058409920888299  0.6400204898606719  0.2786852539791680   T   T   T
  0.7054990636307961  0.1579411025550044  0.2795611973296954   T   T   T
  0.7071865152560420  0.6503982450319147  0.7776216304278036   T   T   T
  0.7358571743731708  0.9002400065510288  0.2204906785603749   T   T   T
  0.7368906549497606  0.3867458645946885  0.7217137459861162   T   T   T
  0.7370552628419469  0.9111901236722048  0.7217262896034322   T   T   T
  0.7381324757309987  0.3970465553802109  0.2206345966544102   T   T   T
  0.7667332659204361  0.6478969150973859  0.7781572955952524   T   T   T
  0.7685213170855771  0.1390538125401218  0.2789019525308246   T   T   T
  0.7680780732373383  0.6573297892224941  0.2792591107889923   T   T   T
  0.7698137109143405  0.1487600123140072  0.7777552279775968   T   T   T
  0.7984976545708978  0.3998856563900816  0.2208875978287578   T   T   T
  0.7995231735177902  0.8854286654963069  0.7218357718654577   T   T   T
  0.7996163788248788  0.4100992006915512  0.7220157729790179   T   T   T
  0.8007729863014922  0.8957016427779975  0.2206109949840089   T   T   T
  0.8293459694119201  0.1466246780357008  0.7782505645458246   T   T   T
  0.8312597814003168  0.6382068314714444  0.2792281695116244   T   T   T
  0.8306829299896040  0.1561944101728982  0.2793056331669233   T   T   T
  0.8323726526172610  0.6472637068042586  0.7780032465369683   T   T   T
  0.8611899898450180  0.8996670207575572  0.2214646765989668   T   T   T
  0.8620940853264670  0.3847577963373410  0.7219939570833800   T   T   T
  0.8622325378991159  0.9083726655351894  0.7225560463253978   T   T   T
  0.8633814918971977  0.3942241143686283  0.2208490497981547   T   T   T
  0.8919891259091008  0.6448837844972194  0.7784986700670503   T   T   T
  0.8940366773332501  0.1377169495631909  0.2796576873134338   T   T   T
  0.8932156868821951  0.6545290696908435  0.2794869335558420   T   T   T
  0.8948390578663306  0.1467595758784843  0.7785456489171262   T   T   T
  0.9238911257496544  0.4002010498823629  0.2217009516133250   T   T   T
  0.9245252849010678  0.8849400196665684  0.7215706224908097   T   T   T
  0.9248897451999877  0.4066462692376958  0.7225262515408036   T   T   T
  0.9258633797362895  0.8918306549137682  0.2206791502856572   T   T   T
  0.9546201290390423  0.1429446994552871  0.7784075984769585   T   T   T
  0.9568264692219213  0.6383543647248785  0.2792768644355890   T   T   T
  0.9555584247156111  0.1522909057810976  0.2792503268390166   T   T   T
  0.9571426818793627  0.6472423979689251  0.7784423958405920   T   T   T
  0.9865960557234875  0.9017977151021190  0.2213409414933555   T   T   T
  0.9867887057993686  0.3864939307459692  0.7201126967818374   T   T   T
  0.9875232852083013  0.9046554821385979  0.7217662992033779   T   T   T
  0.9881057170580192  0.3896991457415784  0.2195335101858218   T   T   T
  0.9997777258610824  0.5432769446454848  0.2255700250107569   T   T   T
  0.9998982482616094  0.2436265802227210  0.7720203513777318   T   T   T
  0.0000003239465851  0.0437642467755971  0.2699560666306383   T   T   T
  0.9997182015555233  0.7466229128482201  0.7319520216862210   T   T   T
  0.0053924025044735  0.4933742685862452  0.7840383984429549   T   T   T
  0.0053590483335720  0.7943441569056156  0.2803618101181098   T   T   T
  0.0059992417187594  0.2889944140976322  0.2160789962101018   T   T   T
  0.0061174958583971  0.9985452588374761  0.7181188328708276   T   T   T
  0.0183909236363890  0.6720263339744545  0.0080009320732275   T   T   T
  0.0186718067940775  0.1722244853332888  0.5086435518826571   T   T   T
  0.0178576919468960  0.6166658100722278  0.5077763711323374   T   T   T
  0.0189546352045607  0.1157591140158537  0.0083373528872516   T   T   T
  0.0310158613524595  0.7891969042350487  0.7154852941265134   T   T   T
  0.0308237886330086  0.4988174574340728  0.2191586337849430   T   T   T
  0.0315850113115950  0.9934397148809555  0.2840964444553385   T   T   T
  0.0315623418272896  0.2939780252348396  0.7823415205711167   T   T   T
  0.0372152522068751  0.0432124183476761  0.7267233335577368   T   T   T
  0.0370700893428380  0.7443719523287196  0.2727743797751202   T   T   T
  0.0368973580258249  0.5439765921777291  0.7682201328793710   T   T   T
  0.0371703489382653  0.2462344653189347  0.2306348311924262   T   T   T
  0.0459978520489882  0.8919828178301271  0.9913602819992043   T   T   T
  0.0463674572647491  0.3966536550170129  0.4919536882761185   T   T   T
  0.0533866835080928  0.8917049520938799  0.4911903520870844   T   T   T
  0.0529999520004135  0.3975895754844901  0.9921631825420725   T   T   T
  0.0621206384179973  0.0429446878668535  0.2275854271255101   T   T   T
  0.0622989466971294  0.7453037613260297  0.7735341038653877   T   T   T
  0.0622877933258185  0.2468012358324148  0.7309780359494554   T   T   T
  0.0624459604982245  0.5446303731169960  0.2693066187648028   T   T   T
  0.0677914870069373  0.9941982439552479  0.7835003632415622   T   T   T
  0.0678232851519546  0.2944966157613134  0.2818886129250673   T   T   T
  0.0684184232258691  0.7893547567114425  0.2151697899286741   T   T   T
  0.0684921582236144  0.4997409306496699  0.7185379660798156   T   T   T
  0.0807140374355901  0.1723468384934501  0.0088272111976952   T   T   T
  0.0810321108545382  0.6729786352589447  0.5082777056916221   T   T   T
  0.0804514502417404  0.1167292897183322  0.5081949306860785   T   T   T
  0.0814344131773828  0.6166406805212707  0.0083105841913929   T   T   T
  0.0934415622279118  0.2897377350850018  0.7170288651443936   T   T   T
  0.0932724991771108  0.9990565475289478  0.2183983902256331   T   T   T
  0.0939878529410446  0.4939309104286743  0.2843959906254873   T   T   T
  0.0940183766771269  0.7946801778419199  0.7815539100493116   T   T   T
  0.0994528664875883  0.2441236430534062  0.2713542364804780   T   T   T
  0.0995356430758946  0.5441928042273089  0.7260592611195076   T   T   T
  0.0993894648864521  0.0439281369599614  0.7704823692965237   T   T   T
  0.0996956184161930  0.7469355072483381  0.2316173297117685   T   T   T
  0.1084747764024458  0.3933514580379481  0.9918830872934051   T   T   T
  0.1088191599384304  0.8983327588596506  0.4919617966332421   T   T   T
  0.1157033908983081  0.3916873032583330  0.4916358862865986   T   T   T
  0.1154937811382464  0.8972612433981892  0.9923650349652408   T   T   T
  0.1245065010338211  0.5431686374329814  0.2296413746808103   T   T   T
  0.1247339880496807  0.2468386704182638  0.7744079884087375   T   T   T
  0.1249033522965219  0.0460835973516824  0.2683419675458197   T   T   T
  0.1248220775146837  0.7473100699225635  0.7289329220873019   T   T   T
  0.1302186240248416  0.4953848282230474  0.7822493484348731   T   T   T
  0.1302822085453565  0.7954435801846883  0.2826470830242991   T   T   T
  0.1308902628360825  0.2903619718766962  0.2154272972218162   T   T   T
  0.1309149392269953  0.0006960084831242  0.7196388834225815   T   T   T
  0.1430218179365474  0.6728915459270792  0.0085468438624559   T   T   T
  0.1434368439137784  0.1736551093957542  0.5081200142550319   T   T   T
  0.1430680951475184  0.6176436588697070  0.5079049726789451   T   T   T
  0.1439427960388066  0.1180817147743091  0.0083458930637870   T   T   T
  0.1559218753718521  0.7906769264255098  0.7180550333763187   T   T   T
  0.1557676775987999  0.5000485934084754  0.2172908722727716   T   T   T
  0.1564541389991139  0.9950383642866664  0.2841777145964818   T   T   T
  0.1564989955070126  0.2956707492666803  0.7806373540675938   T   T   T
  0.1619397659401299  0.0452743223743711  0.7252598940961599   T   T   T
  0.1618581315844858  0.7447409097295979  0.2692345096948934   T   T   T
  0.1619153043508363  0.5443409358780971  0.7717786706065002   T   T   T
  0.1622106688477631  0.2481108331801742  0.2320688207444605   T   T   T
  0.1710272838946119  0.8950721150578915  0.9916138815691482   T   T   T
  0.1712968517317644  0.3998067891222115  0.4915462143096307   T   T   T
  0.1781139519961165  0.8919228783088873  0.4912033876282026   T   T   T
  0.1780235083596349  0.3976345810094575  0.9919208643636599   T   T   T
  0.1869727235595532  0.0437872390860083  0.2311469934485268   T   T   T
  0.1871903436107683  0.7480864228092119  0.7747625585128148   T   T   T
  0.1873119396390575  0.2476217510132941  0.7274058111901719   T   T   T
  0.1873776015880713  0.5473468091330932  0.2680836191829420   T   T   T
  0.1927132088259209  0.9962894738822982  0.7808657645942760   T   T   T
  0.1927597767553703  0.2964972442654001  0.2827488539363204   T   T   T
  0.1933955775890697  0.7914378198731210  0.2152550540517676   T   T   T
  0.1933914761700834  0.5016124718004270  0.7196014736522934   T   T   T
  0.2053880979817196  0.1734289925641861  0.0084340902125033   T   T   T
  0.2059008839704095  0.6749011581480887  0.5082954492674113   T   T   T
  0.2056777343003336  0.1188528524714222  0.5079852881387950   T   T   T
  0.2064134597550643  0.6191754701089464  0.0085692311072305   T   T   T
  0.2183275206293215  0.2919286221504516  0.7193925697463465   T   T   T
  0.2182781092119575  0.0011242530970089  0.2164528802052890   T   T   T
  0.2189085300076746  0.4962326159743632  0.2844150923300399   T   T   T
  0.2189711238977351  0.7968718974278868  0.7807139627441875   T   T   T
  0.2243018003716330  0.2456928120193624  0.2678932472302128   T   T   T
  0.2243823135101520  0.5465164837546379  0.7253793963532325   T   T   T
  0.2244512427054968  0.0450767230977085  0.7726926703303972   T   T   T
  0.2247222672575639  0.7489645569846235  0.2318874886659827   T   T   T
  0.2335739431858539  0.3967269349243274  0.9917838595444275   T   T   T
  0.2337304724033586  0.9008555622741320  0.4911835136664977   T   T   T
  0.2404551395754732  0.3926919737427709  0.4914797719876421   T   T   T
  0.2405589978369005  0.8979853693930083  0.9914765924557222   T   T   T
  0.2494521261415083  0.5448364634934457  0.2324214265312108   T   T   T
  0.2496401540619525  0.2490658740734635  0.7742178696930218   T   T   T
  0.2498471497675624  0.0482957591351970  0.2678117642885828   T   T   T
  0.2497845577764693  0.7479301390612360  0.7259765335328454   T   T   T
  0.2552031358209998  0.4971097645315660  0.7798844540362032   T   T   T
  0.2552575549896650  0.7976759021729224  0.2830117279889071   T   T   T
  0.2558702291165960  0.2926822543617204  0.2160158807458782   T   T   T
  0.2558483945724883  0.0024044827240255  0.7191818436272608   T   T   T
  0.2677697135252407  0.6741189576680799  0.0081224826602443   T   T   T
  0.2683937691534989  0.1755433122638729  0.5081578084072421   T   T   T
  0.2682841546103180  0.6199531773501140  0.5078366503374446   T   T   T
  0.2688302103030831  0.1205148230055738  0.0083948125615143   T   T   T
  0.2807727251963186  0.7928262716756055  0.7201944797157515   T   T   T
  0.2807959357642683  0.5023039598472661  0.2156480493327922   T   T   T
  0.2814067552801260  0.9974438777597580  0.2836282013031082   T   T   T
  0.2814367529707042  0.2978735943480170  0.7804322320169470   T   T   T
  0.2868430477931022  0.0471952377854417  0.7261291534702669   T   T   T
  0.2867908298635126  0.7468556679481623  0.2669400084756422   T   T   T
  0.2869712078752494  0.5457828135944487  0.7734946749006394   T   T   T
  0.2871883629412884  0.2499603091601896  0.2315925429231247   T   T   T
  0.2961657158155396  0.8976703492367033  0.9918110021518235   T   T   T
  0.2961720230239338  0.4019411567846632  0.4910002621991449   T   T   T
  0.3028555141024811  0.8936547311760970  0.4915796118190078   T   T   T
  0.3030877822149868  0.3982796422006529  0.9912056925817730   T   T   T
  0.3120009793768798  0.0458832335497825  0.2327717162922801   T   T   T
  0.3121508616375598  0.7497118191703099  0.7729526536369965   T   T   T
  0.3122400759587616  0.2482632063201373  0.7248558658354326   T   T   T
  0.3123337683387037  0.5490580032272447  0.2675177878037362   T   T   T
  0.3177279897467652  0.9977037513246693  0.7793129513034668   T   T   T
  0.3177465280635016  0.2988709791969836  0.2834505827725211   T   T   T
  0.3184050626208505  0.7937693949992711  0.2165223092850350   T   T   T
  0.3183085392152592  0.5030010897052387  0.7188440961808427   T   T   T
  0.3301886693562454  0.1752598588213986  0.0074681656943737   T   T   T
  0.3309382092365599  0.6759612669587312  0.5076333660566877   T   T   T
  0.3308629440165066  0.1206105321737188  0.5074528711000023   T   T   T
  0.3312829257755635  0.6216396821687521  0.0079197183989914   T   T   T
  0.3432227277660317  0.2934790925141152  0.7192808917221483   T   T   T
  0.3432924629885490  0.0036175001673425  0.2143050014044899   T   T   T
  0.3439336160308050  0.4984980739839058  0.2824559605498083   T   T   T
  0.3439162905712486  0.7988390802571859  0.7800542866854898   T   T   T
  0.3492884419662241  0.2483651381353766  0.2661341251829939   T   T   T
  0.3493249647835207  0.5473709126251347  0.7264578791319355   T   T   T
  0.3494907098864841  0.0469337263151588  0.7738332557951656   T   T   T
  0.3496638471188626  0.7508592204773907  0.2307060016961386   T   T   T
  0.3587228356646103  0.3980588256885754  0.9908611102777174   T   T   T
  0.3585488408038616  0.9029564218431164  0.4905083807862826   T   T   T
  0.3653316783571576  0.3947053829186919  0.4906981301188109   T   T   T
  0.3656202028970409  0.8995225852303289  0.9907665121186533   T   T   T
  0.3745740237028690  0.5469334074596158  0.2315364861203013   T   T   T
  0.3746793251591258  0.2500594628032369  0.7709180651363914   T   T   T
  0.3747686961726034  0.0497385430520525  0.2688242167624280   T   T   T
  0.3746401621096748  0.7491760076371381  0.7242710846030190   T   T   T
  0.3802032113622704  0.4984522567724720  0.7785281156137137   T   T   T
  0.3802167142278117  0.8001191964192209  0.2829427192591052   T   T   T
  0.3809321355726874  0.2945582715188765  0.2163792498051696   T   T   T
  0.3807915155381401  0.0036900402650665  0.7172479697395515   T   T   T
  0.3926732302926521  0.6761343504555114  0.0064891511443352   T   T   T
  0.3935836519636212  0.1769283013133864  0.5072647127371276   T   T   T
  0.3933066195201287  0.6218318997080694  0.5067719421105958   T   T   T
  0.3936150480749863  0.1217457377713229  0.0076477079090817   T   T   T
  0.4056744639981711  0.7943536888344011  0.7184523836888131   T   T   T
  0.4057957001729020  0.5044760648488285  0.2148292306577038   T   T   T
  0.4064487541257857  0.9994216298850072  0.2815683602140073   T   T   T
  0.4063702516992564  0.2997007242784857  0.7820186491190481   T   T   T
  0.4118469722071048  0.0477264341205624  0.7277945348482142   T   T   T
  0.4117943073767167  0.7498290017199474  0.2662256729675813   T   T   T
  0.4119254814228143  0.5481903437901228  0.7729041967700715   T   T   T
  0.4120990613804275  0.2510829876667891  0.2286899934251966   T   T   T
  0.4212569523245858  0.8979444754350244  0.9907124287599656   T   T   T
  0.4209268501924111  0.4021889966891007  0.4913343133011182   T   T   T
  0.4278320250756447  0.8962170333910815  0.4907015304530315   T   T   T
  0.4281312991230076  0.4013251546135553  0.9916240371714581   T   T   T
  0.4371626990149715  0.0476735857520772  0.2303538458005133   T   T   T
  0.4372045689273690  0.7504192834318751  0.7693288068910027   T   T   T
  0.4370295145926941  0.2500237633266571  0.7264932979814869   T   T   T
  0.4371483624421764  0.5498175085154363  0.2720737915826616   T   T   T
  0.4426687676329428  0.9992238865505213  0.7801478577121748   T   T   T
  0.4426944256535925  0.3003529734706402  0.2832205230332716   T   T   T
  0.4434547227416721  0.7950454628075453  0.2173510671676129   T   T   T
  0.4432087074696717  0.5044367463398656  0.7164902999859003   T   T   T
  0.4552923722622922  0.1771711161984528  0.0073269293942961   T   T   T
  0.4562114888797525  0.6775734408483295  0.5077112416585601   T   T   T
  0.4556861901697220  0.1219376981962554  0.5076844118062497   T   T   T
  0.4558898569162310  0.6219027719213551  0.0081302756594202   T   T   T
  0.4680519374974325  0.2951433241556820  0.7177194351929319   T   T   T
  0.4682757170637434  0.0045181533166722  0.2150407792425813   T   T   T
  0.4688087496130444  0.4994328641433269  0.2812306283318078   T   T   T
  0.4688487028393024  0.8002849053902821  0.7830546247047342   T   T   T
  0.4743269457432202  0.2504696472205972  0.2686638739250968   T   T   T
  0.4743455804428361  0.5479048593262826  0.7300818148357832   T   T   T
  0.4743537511386370  0.0493202329817736  0.7717010338393385   T   T   T
  0.4745052594799094  0.7502415165363532  0.2262479040841245   T   T   T
  0.4836614774765340  0.3972442664563968  0.9911974462994899   T   T   T
  0.4833086835935121  0.9016885240002126  0.4905215671450439   T   T   T
  0.4902639972299778  0.3977705270587329  0.4912134394891269   T   T   T
  0.4906381704105822  0.9020941098472037  0.9905318897941681   T   T   T
  0.4993855294680882  0.7509940344070281  0.7269425276700278   T   T   T
  0.4995959065971944  0.5485499375787241  0.2290193646337886   T   T   T
  0.4996470706396377  0.2502955618372593  0.7676276880429217   T   T   T
  0.4995085695633335  0.0491199804941243  0.2725465383360154   T   T   T
  0.5051102828719066  0.8007257442270431  0.2826402555202125   T   T   T
  0.5050951876119184  0.4998389361367271  0.7814349385255548   T   T   T
  0.5056759230861656  0.0049321359839164  0.7143469174334317   T   T   T
  0.5058591025656136  0.2953875176148026  0.2179631687276267   T   T   T
  0.5179900203792981  0.6225196898589558  0.5078079787592203   T   T   T
  0.5182119026001090  0.1223381610519441  0.0071156978014926   T   T   T
  0.5177696876778485  0.6780704123367987  0.0074737713837595   T   T   T
  0.5186856321626006  0.1777147069142634  0.5068723771122962   T   T   T
  0.5306375894888016  0.5047414598486037  0.2162844964286165   T   T   T
  0.5305027624704741  0.7958509869019942  0.7174319749895574   T   T   T
  0.5312157540598496  0.3012674503975374  0.7829921723202935   T   T   T
  0.5312288426866459  0.9996177060129763  0.2802363835826872   T   T   T
  0.5367362465165686  0.5511084650567127  0.7704371587449299   T   T   T
  0.5368248662983881  0.2499792322562058  0.2248342372852807   T   T   T
  0.5367672946165144  0.7512506120319794  0.2701995575698111   T   T   T
  0.5368612690435245  0.0482784240972819  0.7310513100641569   T   T   T
  0.5457259022969287  0.4014890976535868  0.4909176566414947   T   T   T
  0.5461129532622886  0.8970380362029109  0.9912801942223729   T   T   T
  0.5529303367965662  0.4035598968200505  0.9907701199074301   T   T   T
  0.5527174381950551  0.8989346576230034  0.4913558502931474   T   T   T
  0.5617598918849036  0.2524961702562221  0.7294964313177368   T   T   T
  0.5618711382289343  0.5485815040239596  0.2739156016480950   T   T   T
  0.5621482441178131  0.7501677064922412  0.7667753319771075   T   T   T
  0.5620962631721346  0.0491695938317601  0.2276957732741856   T   T   T
  0.5675061884429931  0.3007292755455399  0.2814699909019094   T   T   T
  0.5675170613952032  0.0006578690026428  0.7823186040143895   T   T   T
  0.5681206726499755  0.5053385172069798  0.7144807256610521   T   T   T
  0.5682142153912607  0.7953499922681185  0.2192714379229142   T   T   T
  0.5802665113279626  0.1235754746702334  0.5083201388319545   T   T   T
  0.5805629130338504  0.6226713348753981  0.0073250215176133   T   T   T
  0.5803860310901430  0.1784485108891716  0.0079517903967589   T   T   T
  0.5811822789814586  0.6771585167708063  0.5073645479772647   T   T   T
  0.5930971092041456  0.0051489114989219  0.2185763244118083   T   T   T
  0.5930349606196090  0.2962544368492254  0.7171685025949135   T   T   T
  0.5936673530710624  0.8012838158204264  0.7833285874366606   T   T   T
  0.5936990133107864  0.5000568741554337  0.2788373598073044   T   T   T
  0.5991535250963480  0.7502129037256611  0.2245959384704975   T   T   T
  0.5991147919638308  0.0518751238171570  0.7687382566111257   T   T   T
  0.5992631676698591  0.2520266006806729  0.2723811145012289   T   T   T
  0.5994494064105956  0.5483043057001042  0.7326900233196247   T   T   T
  0.6082746186501657  0.9007626056309572  0.4915109951569169   T   T   T
  0.6086640534326870  0.3960722385506726  0.9914094575280665   T   T   T
  0.6152575970158257  0.9046154880282657  0.9912650993509688   T   T   T
  0.6152268852283631  0.4002871649489833  0.4914527987026120   T   T   T
  0.6241972932697120  0.7529810951338066  0.7319788843091922   T   T   T
  0.6243625765072542  0.0480198952723371  0.2751846869975716   T   T   T
  0.6246213794025172  0.5495696612693356  0.2262418096536981   T   T   T
  0.6246965601889849  0.2496307139856906  0.7657501679921070   T   T   T
  0.6299759759037327  0.8004515238043270  0.2800561064997407   T   T   T
  0.6300391652584196  0.5005057909148550  0.7829513016052349   T   T   T
  0.6306162273304959  0.0052103215079370  0.7153964695978330   T   T   T
  0.6306700808410410  0.2951330131845721  0.2210436950377173   T   T   T
  0.6425862905509174  0.6239607133316282  0.5084801432858350   T   T   T
  0.6429860167721290  0.1227673863197964  0.0081682779766386   T   T   T
  0.6430599407932993  0.6779470268959008  0.0080679291291600   T   T   T
  0.6437981395115926  0.1761369454497128  0.5082099501453008   T   T   T
  0.6556127592902841  0.5049675114157300  0.2206131829628490   T   T   T
  0.6555823903501001  0.7958716068072053  0.7169181771952829   T   T   T
  0.6561856724471798  0.3008331346072461  0.7840285704421223   T   T   T
  0.6562480697098143  0.9997621150799983  0.2782607184717737   T   T   T
  0.6615852656761091  0.5518648184705768  0.7669849983655417   T   T   T
  0.6616180832733877  0.2499726379209872  0.2246927891951146   T   T   T
  0.6617959917623394  0.7520482857352514  0.2741779844845194   T   T   T
  0.6620265424149776  0.0475246079711911  0.7349143573157424   T   T   T
  0.6708922218136772  0.3996440803757527  0.4919400747350445   T   T   T
  0.6712527003925186  0.8945519197330186  0.9919102683673141   T   T   T
  0.6776690023588582  0.4048890078966811  0.9916569735698971   T   T   T
  0.6777679266838662  0.9005562640363464  0.4920694194137663   T   T   T
  0.6867085031698836  0.2526154879603374  0.7337432911816937   T   T   T
  0.6869631680263377  0.5471554415800274  0.2749930511798057   T   T   T
  0.6872797455821550  0.7484315192592251  0.7649382377153416   T   T   T
  0.6871987933834712  0.0492018464882743  0.2255525887348599   T   T   T
  0.6925227262413338  0.2998297806926845  0.2791228170315689   T   T   T
  0.6926010388236628  0.9997527038558904  0.7836641603494622   T   T   T
  0.6931758789183584  0.5042232563964618  0.7159533571189071   T   T   T
  0.6932027825275480  0.7943284384610673  0.2220757961858758   T   T   T
  0.7050270383878812  0.1236778058565287  0.5085635077500037   T   T   T
  0.7055788068797885  0.6222810393251128  0.0076660893809986   T   T   T
  0.7057210092022178  0.1772731533387551  0.0082022429214663   T   T   T
  0.7064232853969500  0.6744795953678818  0.5078296817880736   T   T   T
  0.7181718473531823  0.0044799143564084  0.2214126242165113   T   T   T
  0.7181918987260686  0.2948071630916586  0.7162904378022522   T   T   T