&CONTROL
    calculation   = 'scf'
    restart_mode  = 'from_scratch'
    prefix        = 'Landau_9'
    pseudo_dir    = '/cluster/scratch/mnoe/QE/pps'
    outdir        = './'
/
&SYSTEM
    ibrav       = 0
    nat         = 32
    ntyp        = 2
    ecutwfc     = 120
    occupations = 'smearing'
    degauss     = 7.35d-4
    tot_charge  = -0.6
/
&ELECTRONS
    conv_thr    = 1.0d-8
    diagonalization = 'david'
/

CELL_PARAMETERS angstrom
   7.392707468   0.000000000   0.000000000
   0.000000000   7.667408612   0.000000000
   0.000000000   0.000000000   7.403076542

ATOMIC_SPECIES
W 183.84 W_ONCV_LDA-4.0.upf
O 15.9994 O_ONCV_LDA-3.0.upf

ATOMIC_POSITIONS crystal
W 0.241680002	0.2774028652291746	0.00786	
W 0.7583199743073923	0.7225971347708254	0.992140017	
W 0.258319998	0.2225971512516133	0.507860015	
W 0.7416799783073922	0.777402880133602	0.492139985	
W 0.7583199743073923	0.2774028652291746	0.492139985	
W 0.241680002	0.7225971347708254	0.507860015	
W 0.7416799783073922	0.2225971512516133	0.992140017	
W 0.258319998	0.777402880133602	0.00786	
O 0.234640005	0.007105743488391713	0.00245	
O 0.7653600033073923	0.9928942484150607	0.997550035	
O 0.265359995	0.49289426331948816	0.502449998	
O 0.7346399493073922	0.5071057515849393	0.497550002	
O 0.7653600033073923	0.007105743488391713	0.497550002	
O 0.234640005	0.9928942484150607	0.502449998	
O 0.7346399493073922	0.49289426331948816	0.997550035	
O 0.265359995	0.5071057515849393	0.00245	
O 0.502279991	0.234249988	0.4604385828241391	
O 0.497720009	0.7657500182118199	0.5395614330418643	
O 0.997719977	0.265749996	0.960438615824139	
O 0.002279997	0.7342500562118198	0.03956139171379738	
O 0.497720009	0.234249988	0.03956139171379738	
O 0.502279991	0.7657500182118199	0.960438615824139	
O 0.002279997	0.265749996	0.5395614330418643	
O 0.997719977	0.7342500562118198	0.4604385828241391	
O 0.7104385906507434	0.246560002	0.7465500223073922	
O 0.2895613934832531	0.7534400362118199	0.25344997	
O 0.789561456734472	0.253439998	0.246550079	
O 0.2104385988241391	0.7465599782118199	0.7534499303073923	
O 0.2895613934832531	0.246560002	0.7534499303073923	
O 0.7104385906507434	0.7534400362118199	0.246550079	
O 0.2104385988241391	0.253439998	0.25344997	
O 0.789561456734472	0.7465599782118199	0.7465500223073922	

K_POINTS automatic
6 6 6 0 0 0
