
&CONTROL
    calculation   = 'vc-relax'
    restart_mode  = 'from_scratch'
    prefix        = 'Landau_32'
    pseudo_dir    = '/cluster/scratch/mnoe/QE/pps'
    outdir        = './'
    forc_conv_thr = 1.0d-7
    etot_conv_thr = 1.0d-7

/
&SYSTEM
    ibrav       = 0
    nat         = 32
    ntyp        = 2
    ecutwfc     = 120
    occupations = 'smearing'
    degauss     = 7.35d-4
    tot_charge  = -0.0
/
&ELECTRONS
    conv_thr    = 1.0d-8
    diagonalization = 'david'
/


&IONS
ion_dynamics = 'bfgs'
/

&CELL
cell_dynamics = 'bfgs'
cell_dofree = 'all'
/
CELL_PARAMETERS angstrom
        7.3236460686         0.0000000000         0.0000000000
        0.0000000000         7.7495899200         0.0000000000
        0.0000000000         0.0000000000         7.3236460686

ATOMIC_SPECIES
W 183.84 W_ONCV_LDA-4.0.upf
O 15.9994 O_ONCV_LDA-3.0.upf

ATOMIC_POSITIONS crystal
        0.235200000         0.281860003         0.013980001 0 0 0
        0.764800000         0.718139997         0.986020020 0 0 0
        0.264800016         0.218140012         0.513979980 0 0 0
        0.735200000         0.781859972         0.486019987 0 0 0
        0.764800000         0.281860003         0.486019987 0 0 0
        0.235200000         0.718139997         0.513979980 0 0 0
        0.735200000         0.218140012         0.986020020 0 0 0
        0.264800016         0.781859972         0.013980001 0 0 0
        0.222699997         0.008320000         0.004350000 0 0 0
        0.777299987         0.991680023         0.995650004 0 0 0
        0.277299987         0.491679992         0.504349996 0 0 0
        0.722700013         0.508319977         0.495650004 0 0 0
        0.777299987         0.008320000         0.495650004 0 0 0
        0.222699997         0.991680023         0.504349996 0 0 0
        0.722700013         0.491679992         0.995650004 0 0 0
        0.277299987         0.508319977         0.004350000 0 0 0
        0.504050025         0.221990001         0.449540004 0 0 0
        0.495949975         0.778010015         0.550459963 0 0 0
        0.995949975         0.278010015         0.949540037 0 0 0
        0.004050016         0.721990016         0.050460012 0 0 0
        0.495949975         0.221990001         0.050460012 0 0 0
        0.504050025         0.778010015         0.949540037 0 0 0
        0.004050016         0.278010015         0.550459963 0 0 0
        0.995949975         0.721990016         0.449540004 0 0 0
        0.699540037         0.243880005         0.743860013 0 0 0
        0.300459996         0.756119995         0.256139987 0 0 0
        0.800459963         0.256119995         0.243860013 0 0 0
        0.199540020         0.743880036         0.756139987 0 0 0
        0.300459996         0.243880005         0.756139987 0 0 0
        0.699540037         0.756119995         0.243860013 0 0 0
        0.199540020         0.256119995         0.256139987 0 0 0
        0.800459963         0.743880036         0.743860013 0 0 0

K_POINTS automatic
6 6 6 0 0 0
