
&CONTROL
    calculation   = 'vc-relax'
    restart_mode  = 'from_scratch'
    prefix        = 'Landau_33'
    pseudo_dir    = '/cluster/scratch/mnoe/QE/pps'
    outdir        = './'
    forc_conv_thr = 1.0d-7
    etot_conv_thr = 1.0d-7

/
&SYSTEM
    ibrav       = 0
    nat         = 32
    ntyp        = 2
    ecutwfc     = 120
    occupations = 'smearing'
    degauss     = 7.35d-4
    tot_charge  = -0.0
/
&ELECTRONS
    conv_thr    = 1.0d-8
    diagonalization = 'david'
/


&IONS
ion_dynamics = 'bfgs'
/

&CELL
cell_dynamics = 'bfgs'
cell_dofree = 'all'
/
CELL_PARAMETERS angstrom
        7.3236460686         0.0000000000         0.0000000000
        0.0000000000         7.7495899200         0.0000000000
        0.0000000000         0.0000000000         7.3236460686

ATOMIC_SPECIES
W 183.84 W_ONCV_LDA-4.0.upf
O 15.9994 O_ONCV_LDA-3.0.upf

ATOMIC_POSITIONS crystal
W 0.26431	0.2635527090792692	-0.984949975	 0 0 0
W 0.7349498775783125	0.7364472909207308	-0.985689968	 0 0 0
W 0.23569	0.23644731200958596	-0.484950007	 0 0 0
W 0.7650498955783125	0.7635528978337889	-0.48569	 0 0 0
W 0.7356898705783125	0.2635527090792692	-0.515049993	 0 0 0
W 0.265049993	0.7364472909207308	-0.51431	 0 0 0
W 0.7643099025783125	0.23644731200958596	-1.0150499929999999	 0 0 0
W 0.234950007	0.7635528978337889	-1.01431	 0 0 0
O 0.280489989	0.003337082892691726	-0.969659976	 0 0 0
O 0.7196598785783125	0.9966628022413434	-0.969510011	 0 0 0
O 0.219510011	0.496662990995863	-0.46965999199999997	 0 0 0
O 0.7803398945783125	0.5033371977586566	-0.469510011	 0 0 0
O 0.7195099135783125	0.003337082892691726	-0.530340024	 0 0 0
O 0.280340024	0.9966628022413434	-0.530489989	 0 0 0
O 0.7804898595783125	0.496662990995863	-1.030339992	 0 0 0
O 0.219659992	0.5033371977586566	-1.030489957	 0 0 0
O 0.49363996	0.286419977	-0.5057760849854948	 0 0 0
O 0.504159986	0.7242201203328322	-0.49422369808227495	 0 0 0
O 0.006359994	0.213579992	-1.0057760849854946	 0 0 0
O 0.995839981	0.7757800623328321	-0.9942240535024585	 0 0 0
O 0.506360007	0.286419977	-0.9942240535024585	 0 0 0
O 0.495840014	0.7242201203328322	-1.0057760849854946	 0 0 0
O 0.993639993	0.213579992	-0.49422369808227495	 0 0 0
O 0.004159987	0.7757800623328321	-0.5057760849854948	 0 0 0
O 0.7442237795039625	0.224220014	-0.2541600844216874	 0 0 0
O 0.255775987563807	0.7135801143328322	-0.756360007	 0 0 0
O 0.7557763833394125	0.275780001	-0.754159986	 0 0 0
O 0.2442238990145052	0.7864200683328322	-0.2563600914216874	 0 0 0
O 0.255775987563807	0.224220014	-1.2458400784216874	 0 0 0
O 0.7442237795039625	0.7135801143328322	-0.74363996	 0 0 0
O 0.2442238990145052	0.275780001	-0.745840014	 0 0 0
O 0.7557763833394125	0.7864200683328322	-1.2436400904216873	 0 0 0

K_POINTS automatic
6 6 6 0 0 0
