
&CONTROL
    calculation   = 'vc-relax'
    restart_mode  = 'from_scratch'
    prefix        = 'Landau_31'
    pseudo_dir    = '/cluster/scratch/mnoe/QE/pps'
    outdir        = './'
    forc_conv_thr = 1.0d-7
    etot_conv_thr = 1.0d-7

/
&SYSTEM
    ibrav       = 0
    nat         = 32
    ntyp        = 2
    ecutwfc     = 120
    occupations = 'smearing'
    degauss     = 7.35d-4
    tot_charge  = -0.0
/
&ELECTRONS
    conv_thr    = 1.0d-8
    diagonalization = 'david'
/


&IONS
ion_dynamics = 'bfgs'
/

&CELL
cell_dynamics = 'bfgs'
cell_dofree = 'all'
/
CELL_PARAMETERS angstrom
        7.3236460686         0.0000000000         0.0000000000
        0.0000000000         7.7495899200         0.0000000000
        0.0000000000         0.0000000000         7.3236460686

ATOMIC_SPECIES
W 183.84 W_ONCV_LDA-4.0.upf
O 15.9994 O_ONCV_LDA-3.0.upf

ATOMIC_POSITIONS crystal
0.23566	0.28466560542586	0.01354	 0 0 0
0.764339984	0.7153343945741399	0.986459981	 0 0 0
0.264339984	0.215334405856465	0.513540019	 0 0 0
0.735660016	0.78466557442586	0.486460013	 0 0 0
0.764339984	0.28466560542586	0.486460013	 0 0 0
0.23566	0.7153343945741399	0.513540019	 0 0 0
0.735660016	0.215334405856465	0.986459981	 0 0 0
0.264339984	0.78466557442586	0.01354	 0 0 0
0.22355	0.013628840147845	0.00421	 0 0 0
0.776449951	0.98637118954397	0.995789995	 0 0 0
0.276449983	0.48637115086077504	0.504210005	 0 0 0
0.723550049	0.51362882582242	0.495789995	 0 0 0
0.776449951	0.013628840147845	0.495789995	 0 0 0
0.22355	0.98637118954397	0.504210005	 0 0 0
0.723550049	0.48637115086077504	0.995789995	 0 0 0
0.276449983	0.51362882582242	0.00421	 0 0 0
0.503920029	0.222870006	0.4640414248638	 0 0 0
0.496079971	0.777129979	0.535958558246125	 0 0 0
0.996080003	0.277130009	0.96404144596724	 0 0 0
0.003920078	0.722869991	0.03595860204138	 0 0 0
0.496079971	0.222870006	0.03595860204138	 0 0 0
0.503920029	0.777129979	0.96404144596724	 0 0 0
0.003920078	0.277130009	0.535958558246125	 0 0 0
0.996080003	0.722869991	0.4640414248638	 0 0 0
0.714041466042685	0.244080001	0.744059972	 0 0 0
0.28595858703276	0.755920015	0.255940012	 0 0 0
0.78595855006724	0.255919999	0.244060037	 0 0 0
0.214041441111645	0.744080016	0.755940028	 0 0 0
0.28595858703276	0.244080001	0.755940028	 0 0 0
0.714041466042685	0.755920015	0.244060037	 0 0 0
0.214041441111645	0.255919999	0.255940012	 0 0 0
0.78595855006724	0.744080016	0.744059972	 0 0 0

K_POINTS automatic
6 6 6 0 0 0
