&CONTROL
    calculation   = 'scf'
    restart_mode  = 'from_scratch'
    prefix        = 'Landau_1'
    pseudo_dir    = '/cluster/scratch/mnoe/QE/pps'
    outdir        = './'
/
&SYSTEM
    ibrav       = 0
    nat         = 32
    ntyp        = 2
    ecutwfc     = 120
    occupations = 'smearing'
    degauss     = 7.35d-4
    tot_charge  = -0.1
/
&ELECTRONS
    conv_thr    = 1.0d-8
    diagonalization = 'david'
/

CELL_PARAMETERS angstrom
   7.331299105   0.000000000   0.000000000
   0.000000000   7.744468251   0.000000000
   0.000000000   0.000000000   7.331337050

ATOMIC_SPECIES
W 183.84 W_ONCV_LDA-4.0.upf
O 15.9994 O_ONCV_LDA-3.0.upf

ATOMIC_POSITIONS crystal
W        0.249540001	0.28219960264000005	0.00044	
W        0.750460016	0.71780039736	0.999559974	
W        0.250459999	0.21780041191	0.500439994	
W        0.749539984	0.78219957164	0.499560006	
W       0.750460016	0.28219960264000005	0.499560006	
W       0.249540001	0.71780039736	0.500439994	
W       0.749539984	0.21780041191	0.999559974	
W       0.250459999	0.78219957164	0.00044	
O        0.249149997	0.00896260003	0.00014	
O        0.750850036	0.99103742378	0.999860009	
O        0.25085002	0.49103739185	0.500140023	
O        0.749149964	0.50896257808	0.499859977	
O        0.750850036	0.00896260003	0.499859977	
O        0.249149997	0.99103742378	0.500140023	
O        0.749149964	0.49103739185	0.999860009	
O        0.25085002	0.50896257808	0.00014	
O    0.500129996	0.249119995	0.4512953052	
O    0.499870004	0.750880021	0.54870466375	
O    0.999869972	0.250880005	0.95129533676	
O    0.000129938	0.74912001	0.04870471212	
O   0.499870004	0.249119995	0.04870471212	
O   0.500129996	0.750880021	0.95129533676	
O   0.000129938	0.250880005	0.54870466375	
O   0.999869972	0.74912001	0.4512953052	
O   0.70129533919	0.249809988	0.749810003	
O   0.29870469624	0.750189997	0.250190013	
O   0.79870466276	0.250190012	0.249809987	
O   0.20129532123000002	0.749809973	0.750189997	
O   0.29870469624	0.249809988	0.750189997	
O   0.70129533919	0.750189997	0.249809987	
O   0.20129532123000002	0.250190012	0.250190013	
O   0.79870466276	0.749809973	0.749810003	

K_POINTS automatic
6 6 6 0 0 0
