
&CONTROL
    calculation   = 'vc-relax'
    restart_mode  = 'from_scratch'
    prefix        = 'Landau_9'
    pseudo_dir    = '/cluster/scratch/mnoe/QE/pps'
    outdir        = './'
    forc_conv_thr = 1.0d-7
    etot_conv_thr = 1.0d-7

/
&SYSTEM
    ibrav       = 0
    nat         = 32
    ntyp        = 2
    ecutwfc     = 120
    occupations = 'smearing'
    degauss     = 7.35d-4
    tot_charge  = -0.0
/
&ELECTRONS
    conv_thr    = 1.0d-8
    diagonalization = 'david'
/


&IONS
ion_dynamics = 'bfgs'
/

&CELL
cell_dynamics = 'bfgs'
cell_dofree = 'all'
/
CELL_PARAMETERS angstrom
        7.3236460686         0.0000000000         0.0000000000
        0.0000000000         7.7495899200         0.0000000000
        0.0000000000         0.0000000000         7.3236460686

ATOMIC_SPECIES
W 183.84 W_ONCV_LDA-4.0.upf
O 15.9994 O_ONCV_LDA-3.0.upf

ATOMIC_POSITIONS crystal
0.25808999	0.281860003	0.250229999	 0 0 0
-0.2502300399999998	0.718139997	-0.741910042	 0 0 0
0.24191005799999998	0.218140012	0.7502300239999999	 0 0 0
0.750229999	0.781859972	0.758089974	 0 0 0
0.741910001	0.281860003	0.749769992	 0 0 0
0.25023003999999993	0.718139997	0.741910042	 0 0 0
-0.24191004199999988	0.218140012	-0.7502300399999999	 0 0 0
0.24977000800000004	0.781859972	0.24191000100000004	 0 0 0
0.25889999899999994	0.00832	0.25646001399999996	 0 0 0
-0.2564600119999998	0.991680023	-0.741099984	 0 0 0
0.24110000099999995	0.491679992	0.7564599949999999	 0 0 0
0.756460014	0.508319977	0.7588999989999999	 0 0 0
0.741099986	0.00832	0.743540005	 0 0 0
0.25645999499999994	0.991680023	0.741100001	 0 0 0
-0.24109998399999988	0.491679992	-0.7564600119999999	 0 0 0
0.24354000499999995	0.508319977	0.24109998600000004	 0 0 0
0.49712996500000006	0.25960000399999994	0.6995400039999999	 0 0 0
0.4994099890000001	0.7438400409999999	0.800459963	 0 0 0
-0.9971300630000001	0.24039997999999996	1.199540037	 0 0 0
0.000589959999999976	0.756159931	0.300460012	 0 0 0
0.502870035	0.25960000399999994	0.300460012	 0 0 0
0.500590011	0.7438400409999999	1.199540037	 0 0 0
-0.0028700210000000247	0.24039997999999996	0.800459963	 0 0 0
-1.000590044	0.756159931	0.6995400039999999	 0 0 0
0.6995400369999999	0.24383999399999995	2.000590044	 0 0 0
0.300459996	0.7404000119999999	0.49712996499999995	 0 0 0
0.800459963	0.25615999	0.500589946	 0 0 0
0.19954001999999996	0.75959996	1.9971299980000001	 0 0 0
0.300459996	0.24383999399999995	0.9994099750000001	 0 0 0
0.699540037	0.7404000119999999	0.50286997	 0 0 0
0.19954002	0.25615999	0.499409989	 0 0 0
0.800459963	0.75959996	1.002870021	 0 0 0

K_POINTS automatic
6 6 6 0 0 0
