
&CONTROL
    calculation   = 'vc-relax'
    restart_mode  = 'from_scratch'
    prefix        = 'Landau_18'
    pseudo_dir    = '/cluster/scratch/mnoe/QE/pps'
    outdir        = './'
    forc_conv_thr = 1.0d-7
    etot_conv_thr = 1.0d-7

/
&SYSTEM
    ibrav       = 0
    nat         = 32
    ntyp        = 2
    ecutwfc     = 120
    occupations = 'smearing'
    degauss     = 7.35d-4
    tot_charge  = -0.0
/
&ELECTRONS
    conv_thr    = 1.0d-8
    diagonalization = 'david'
/


&IONS
ion_dynamics = 'bfgs'
/

&CELL
cell_dynamics = 'bfgs'
cell_dofree = 'all'
/
CELL_PARAMETERS angstrom
        7.3236460686         0.0000000000         0.0000000000
        0.0000000000         7.7495899200         0.0000000000
        0.0000000000         0.0000000000         7.3236460686

ATOMIC_SPECIES
W 183.84 W_ONCV_LDA-4.0.upf
O 15.9994 O_ONCV_LDA-3.0.upf

ATOMIC_POSITIONS crystal
W 0.22287985955916628	0.2765553799695659	0.004635576847259773	 0 0 0
W 0.7561798358392045	0.7234446200304341	-0.02681040425274027	 0 0 0
W 0.2771201404408337	0.2234446367927807	0.5046355756588067	 0 0 0
W 0.7438201215500788	0.7765554036023136	0.4731895558588067	 0 0 0
W 0.7771200909500788	0.2765553799695659	0.4953644243411933	 0 0 0
W 0.24382014044083375	0.7234446200304341	0.5268104441411933	 0 0 0
W 0.7228798664392044	0.2234446367927807	-0.00463555614725982	 0 0 0
W 0.2561798595591663	0.7765554036023136	0.026810424952740226	 0 0 0
O 0.21602867232477194	0.006874863370279203	-0.015567796297529475	 0 0 0
O 0.7774626234272248	-0.006874877379559873	-0.02534180259752944	 0 0 0
O 0.2839712934976427	0.4931251462531878	0.48443216052488514	 0 0 0
O 0.7225373159824355	0.5068748773795598	0.4746581776248851	 0 0 0
O 0.7839712511824355	0.006874863370279203	0.5155678193642471	 0 0 0
O 0.22253728449764268	-0.006874877379559873	0.5253418022642472	 0 0 0
O 0.7160286882272248	0.4931251462531878	0.01556778999752951	 0 0 0
O 0.2774626813247719	0.5068748773795598	0.025341796297529473	 0 0 0
O 0.5091507891138309	0.21391219141741358	0.46251085103280853	 0 0 0
O 0.500042774713831	0.7769302235424257	0.5374891741246325	 0 0 0
O -0.009150779857980965	0.28608778158258635	0.9625108840328085	 0 0 0
O -4.278075798095325e-05	0.7230698898865424	0.03748911562148387	 0 0 0
O 0.490849210886169	0.21391219141741358	0.03748911562148387	 0 0 0
O 0.4999572252861689	0.7769302235424257	0.9625108840328085	 0 0 0
O 0.009150744113831003	0.28608778158258635	0.5374891741246325	 0 0 0
O 4.274501383098872e-05	0.7230698898865424	0.46251085103280853	 0 0 0
O 0.7125108540729147	0.2641062033715522	0.7461295720697632	 0 0 0
O 0.2874891207696442	0.7778582795761875	0.259935555289725	 0 0 0
O 0.7874892023221797	0.23589377864882463	0.24612963898972498	 0 0 0
O 0.21251086703280855	0.7221418341534598	0.7599355468697633	 0 0 0
O 0.2874891207696442	0.2641062033715522	0.7538704212787664	 0 0 0
O 0.7125108540729147	0.7778582795761875	0.24006450321027506	 0 0 0
O 0.21251086703280855	0.23589377864882463	0.25387041951027506	 0 0 0
O 0.7874892023221797	0.7221418341534598	0.7400644464787663	 0 0 0

K_POINTS automatic
6 6 6 0 0 0
