
&CONTROL
    calculation   = 'vc-relax'
    restart_mode  = 'from_scratch'
    prefix        = 'Landau_9'
    pseudo_dir    = '/cluster/scratch/mnoe/QE/pps'
    outdir        = './'
    forc_conv_thr = 1.0d-7
    etot_conv_thr = 1.0d-7

/
&SYSTEM
    ibrav       = 0
    nat         = 32
    ntyp        = 2
    ecutwfc     = 120
    occupations = 'smearing'
    degauss     = 7.35d-4
    tot_charge  = -0.0
/
&ELECTRONS
    conv_thr    = 1.0d-8
    diagonalization = 'david'
/


&IONS
ion_dynamics = 'bfgs'
/

&CELL
cell_dynamics = 'bfgs'
cell_dofree = 'all'
/
CELL_PARAMETERS angstrom
        7.3236460686         0.0000000000         0.0000000000
        0.0000000000         7.7495899200         0.0000000000
        0.0000000000         0.0000000000         7.3236460686

ATOMIC_SPECIES
W 183.84 W_ONCV_LDA-4.0.upf
O 15.9994 O_ONCV_LDA-3.0.upf

ATOMIC_POSITIONS crystal
W 0.253899989	0.28091410049760246	-0.995890007	 0 0 0
W 0.7458900018654836	0.7190858995023975	-0.996100011	 0 0 0
W 0.246099994	0.2190859148233048	-0.49589000699999997	 0 0 0
W 0.7541099548654836	0.7809141104457279	-0.496099994	 0 0 0
W 0.7461000058654836	0.28091410049760246	-0.5041099760000001	 0 0 0
W 0.254109976	0.7190858995023975	-0.503899989	 0 0 0
W 0.7539000168654836	0.2190859148233048	-1.00410996	 0 0 0
W 0.245890007	0.7809141104457279	-1.0039000219999998	 0 0 0
O 0.258320005	0.008066840792095263	-0.991729988	 0 0 0
O 0.7417299828654836	0.991933165468852	-0.991680043	 0 0 0
O 0.241679995	0.4919331754169774	-0.49173000499999997	 0 0 0
O 0.7582700388654836	0.508066834531148	-0.49167999500000004	 0 0 0
O 0.7416800378654836	0.008066840792095263	-0.508269995	 0 0 0
O 0.258269995	0.991933165468852	-0.5083200050000001	 0 0 0
O 0.7583199838654836	0.4919331754169774	-1.008270044	 0 0 0
O 0.241730005	0.508066834531148	-1.0083199889999999	 0 0 0
O 0.498270029	0.259930008	-0.5482281029841208	 0 0 0
O 0.501140009	0.7429699818136091	-0.45177187042593914	 0 0 0
O 0.001730025	0.240070007	-1.048228102984121	 0 0 0
O 0.998859991	0.7570300278136091	-0.9517718740012826	 0 0 0
O 0.501730037	0.259930008	-0.9517718740012826	 0 0 0
O 0.498859991	0.7429699818136091	-1.048228102984121	 0 0 0
O 0.998269963	0.240070007	-0.45177187042593914	 0 0 0
O 0.001139998	0.7570300278136091	-0.5482281029841208	 0 0 0
O 0.7017718595604555	0.242969993	-0.2511400031345163	 0 0 0
O 0.2982280978496046	0.7400699968136091	-0.751730037	 0 0 0
O 0.7982281187085772	0.257030007	-0.751140009	 0 0 0
O 0.20177188101587906	0.7599300128136091	-0.25173003013451634	 0 0 0
O 0.2982280978496046	0.242969993	-1.2488599961345164	 0 0 0
O 0.7017718595604555	0.7400699968136091	-0.748270029	 0 0 0
O 0.20177188101587906	0.257030007	-0.748859991	 0 0 0
O 0.7982281187085772	0.7599300128136091	-1.2482699681345164	 0 0 0

K_POINTS automatic
6 6 6 0 0 0
