
&CONTROL
    calculation   = 'vc-relax'
    restart_mode  = 'from_scratch'
    prefix        = 'Landau_10'
    pseudo_dir    = '/cluster/scratch/mnoe/QE/pps'
    outdir        = './'
    forc_conv_thr = 1.0d-7
    etot_conv_thr = 1.0d-7

/
&SYSTEM
    ibrav       = 0
    nat         = 32
    ntyp        = 2
    ecutwfc     = 120
    occupations = 'smearing'
    degauss     = 7.35d-4
    tot_charge  = -0.0
/
&ELECTRONS
    conv_thr    = 1.0d-8
    diagonalization = 'david'
/


&IONS
ion_dynamics = 'bfgs'
/

&CELL
cell_dynamics = 'bfgs'
cell_dofree = 'all'
/
CELL_PARAMETERS angstrom
        7.3236460686         0.0000000000         0.0000000000
        0.0000000000         7.7495899200         0.0000000000
        0.0000000000         0.0000000000         7.3236460686

ATOMIC_SPECIES
W 183.84 W_ONCV_LDA-4.0.upf
O 15.9994 O_ONCV_LDA-3.0.upf

ATOMIC_POSITIONS crystal
W 0.241433727941586	0.27410997328370434	0.004811798243393945	 0 0 0
W 0.7552940542137969	0.7258900267162957	-0.008276879129970428	 0 0 0
W 0.25856627205841404	0.22589004429107593	0.5048118003973705	 0 0 0
W 0.7447058655472076	0.7741100221018961	0.4917231069160077	 0 0 0
W 0.758566223557138	0.27410997328370434	0.4951881996026295	 0 0 0
W 0.2447059013119267	0.7258900267162957	0.5082768930839923	 0 0 0
W 0.7414336962038665	0.22589004429107593	-0.004811789627487826	 0 0 0
W 0.2552940986880733	0.7741100221018961	0.008276887745876548	 0 0 0
O 0.23670621320793414	0.006208662066995739	-0.0011622074458821682	 0 0 0
O 0.7622766743997372	-0.006208693137383657	-0.005230416184515868	 0 0 0
O 0.26329377770790396	0.49379135568080806	0.4988377797239098	 0 0 0
O 0.7377232425517327	0.5062086931373837	0.49476958072499605	 0 0 0
O 0.7632937265843956	0.006208662066995739	0.5011622094125564	 0 0 0
O 0.23772326295766258	-0.006208693137383657	0.5052304084114702	 0 0 0
O 0.7367061903670742	0.49379135568080806	0.00116220482364988	 0 0 0
O 0.2622767279581755	0.5062086931373837	0.00523041356228358	 0 0 0
O 0.5026138053852779	0.2361695981846012	0.46849035153139945	 0 0 0
O 0.4988228006901324	0.7623994432071245	0.5315097004363529	 0 0 0
O -0.002613811659905238	0.2638303905772603	0.9684903845313995	 0 0 0
O 0.0011771866669618189	0.7376006322252842	0.031509592374749935	 0 0 0
O 0.49738619461472205	0.2361695981846012	0.031509592374749935	 0 0 0
O 0.5011771993098676	0.7623994432071245	0.9684903845313995	 0 0 0
O 0.0026137866550471987	0.2638303905772603	0.5315097004363529	 0 0 0
O -0.001177211671819858	0.7376006322252842	0.46849035153139945	 0 0 0
O 0.7184903407601332	0.250416745479955	0.7476006253300745	 0 0 0
O 0.2815096072721144	0.756140747563041	0.2533470877377139	 0 0 0
O 0.7815097416328389	0.24958325171051038	0.24760068778537242	 0 0 0
O 0.21849036753139947	0.7438593281503212	0.753347049631716	 0 0 0
O 0.2815096072721144	0.250416745479955	0.7523993000499992	 0 0 0
O 0.7184903407601332	0.756140747563041	0.24665293661158605	 0 0 0
O 0.21849036753139947	0.24958325171051038	0.25239933656392755	 0 0 0
O 0.7815097416328389	0.7438593281503212	0.7466528757483577	 0 0 0

K_POINTS automatic
6 6 6 0 0 0
