
&CONTROL
    calculation   = 'vc-relax'
    restart_mode  = 'from_scratch'
    prefix        = 'Landau_4'
    pseudo_dir    = '/cluster/scratch/mnoe/QE/pps'
    outdir        = './'
    forc_conv_thr = 1.0d-7
    etot_conv_thr = 1.0d-7

/
&SYSTEM
    ibrav       = 0
    nat         = 32
    ntyp        = 2
    ecutwfc     = 120
    occupations = 'smearing'
    degauss     = 7.35d-4
    tot_charge  = -0.0
/
&ELECTRONS
    conv_thr    = 1.0d-8
    diagonalization = 'david'
/


&IONS
ion_dynamics = 'bfgs'
/

&CELL
cell_dynamics = 'bfgs'
cell_dofree = 'all'
/
CELL_PARAMETERS angstrom
        7.3236460686         0.0000000000         0.0000000000
        0.0000000000         7.7495899200         0.0000000000
        0.0000000000         0.0000000000         7.3236460686

ATOMIC_SPECIES
W 183.84 W_ONCV_LDA-4.0.upf
O 15.9994 O_ONCV_LDA-3.0.upf

ATOMIC_POSITIONS crystal
0.248150008         0.281860003         0.001750000 0 0 0
0.751850024         0.718139997         0.998249987 0 0 0
0.251850008         0.218140012         0.501749980 0 0 0
0.748149976         0.781859972         0.498250020 0 0 0
0.751850024         0.281860003         0.498250020 0 0 0
0.248150008         0.718139997         0.501749980 0 0 0
0.748149976         0.218140012         0.998249987 0 0 0
0.251850008         0.781859972         0.001750000 0 0 0
0.246590008         0.008320000         0.000540000 0 0 0
0.753409975         0.991680023         0.999459962 0 0 0
0.253409975         0.491679992         0.500540006 0 0 0
0.746590025         0.508319977         0.499460027 0 0 0
0.753409975         0.008320000         0.499460027 0 0 0
0.246590008         0.991680023         0.500540006 0 0 0
0.746590025         0.491679992         0.999459962 0 0 0
0.253409975         0.508319977         0.000540000 0 0 0
0.500509989         0.246500008         0.449540004 0 0 0
0.499490011         0.753500008         0.550459963 0 0 0
0.999490044         0.253499992         0.949540037 0 0 0
0.000509977         0.746500023         0.050460012 0 0 0
0.499490011         0.246500008         0.050460012 0 0 0
