
&CONTROL
    calculation   = 'vc-relax'
    restart_mode  = 'from_scratch'
    prefix        = 'Landau_14'
    pseudo_dir    = '/cluster/scratch/mnoe/QE/pps'
    outdir        = './'
    forc_conv_thr = 1.0d-7
    etot_conv_thr = 1.0d-7

/
&SYSTEM
    ibrav       = 0
    nat         = 32
    ntyp        = 2
    ecutwfc     = 120
    occupations = 'smearing'
    degauss     = 7.35d-4
    tot_charge  = -0.0
/
&ELECTRONS
    conv_thr    = 1.0d-8
    diagonalization = 'david'
/


&IONS
ion_dynamics = 'bfgs'
/

&CELL
cell_dynamics = 'bfgs'
cell_dofree = 'all'
/
CELL_PARAMETERS angstrom
        7.3236460686         0.0000000000         0.0000000000
        0.0000000000         7.7495899200         0.0000000000
        0.0000000000         0.0000000000         7.3236460686

ATOMIC_SPECIES
W 183.84 W_ONCV_LDA-4.0.upf
O 15.9994 O_ONCV_LDA-3.0.upf

ATOMIC_POSITIONS crystal
W 0.25	0.27990845040254175	0.0	 0 0 0
W 0.7499999896262193	0.7200915495974582	0.0	 0 0 0
W 0.25	0.22009156524581952	0.5	 0 0 0
W 0.7499999896262193	0.779908439501742	0.5	 0 0 0
W 0.7499999896262193	0.27990845040254175	0.5	 0 0 0
W 0.25	0.7200915495974582	0.5	 0 0 0
W 0.7499999896262193	0.22009156524581952	0.0	 0 0 0
W 0.25	0.779908439501742	0.0	 0 0 0
O 0.25	0.007788339196351354	0.0	 0 0 0
O 0.7499999896262193	0.9922116701880613	0.0	 0 0 0
O 0.25	0.4922116592872616	0.5	 0 0 0
O 0.7499999896262193	0.5077883298119387	0.5	 0 0 0
O 0.7499999896262193	0.007788339196351354	0.5	 0 0 0
O 0.25	0.9922116701880613	0.5	 0 0 0
O 0.7499999896262193	0.4922116592872616	0.0	 0 0 0
O 0.25	0.5077883298119387	0.0	 0 0 0
O 0.5	0.25	0.45431193408303927	 0 0 0
O 0.5	0.7499999947254194	0.5456880543128836	 0 0 0
O 0.0	0.25	0.9543119670830392	 0 0 0
O 0.0	0.7499999947254194	0.04568806376284436	 0 0 0
O 0.5	0.25	0.04568806376284436	 0 0 0
O 0.5	0.7499999947254194	0.9543119670830392	 0 0 0
O 0.0	0.25	0.5456880543128836	 0 0 0
O 0.0	0.7499999947254194	0.45431193408303927	 0 0 0
O 0.7043119560608972	0.25	0.7499999896262193	 0 0 0
O 0.29568805554317995	0.7499999947254194	0.25	 0 0 0
O 0.7956880646866643	0.25	0.25	 0 0 0
O 0.2043119500830393	0.7499999947254194	0.7499999896262193	 0 0 0
O 0.29568805554317995	0.25	0.7499999896262193	 0 0 0
O 0.7043119560608972	0.7499999947254194	0.25	 0 0 0
O 0.2043119500830393	0.25	0.25	 0 0 0
O 0.7956880646866643	0.7499999947254194	0.7499999896262193	 0 0 0

K_POINTS automatic
6 6 6 0 0 0
