
&CONTROL
    calculation   = 'vc-relax'
    restart_mode  = 'from_scratch'
    prefix        = 'Landau_28'
    pseudo_dir    = '/cluster/scratch/mnoe/QE/pps'
    outdir        = './'
    forc_conv_thr = 1.0d-7
    etot_conv_thr = 1.0d-7

/
&SYSTEM
    ibrav       = 0
    nat         = 32
    ntyp        = 2
    ecutwfc     = 120
    occupations = 'smearing'
    degauss     = 7.35d-4
    tot_charge  = -0.0
/
&ELECTRONS
    conv_thr    = 1.0d-8
    diagonalization = 'david'
/


&IONS
ion_dynamics = 'bfgs'
/

&CELL
cell_dynamics = 'bfgs'
cell_dofree = 'all'
/
CELL_PARAMETERS angstrom
        7.3236460686         0.0000000000         0.0000000000
        0.0000000000         7.7495899200         0.0000000000
        0.0000000000         0.0000000000         7.3236460686

ATOMIC_SPECIES
W 183.84 W_ONCV_LDA-4.0.upf
O 15.9994 O_ONCV_LDA-3.0.upf

ATOMIC_POSITIONS crystal
W 0.2467661650129853	0.2708641750448811	0.0030537892138909235	 0 0 0
W 0.7532337735653521	0.7291358249551189	-0.003053785193447436	 0 0 0
W 0.25323383498701474	0.2291358436082456	0.5030537909619098	 0 0 0
W 0.746766109534587	0.7708642572918151	0.49694620903809017	 0 0 0
W 0.7532337735653521	0.2708641750448811	0.49694620903809017	 0 0 0
W 0.2467661650129853	0.7291358249551189	0.5030537909619098	 0 0 0
W 0.746766109534587	0.2291358436082456	-0.003053785193447436	 0 0 0
W 0.25323383498701474	0.7708642572918151	0.0030537892138909235	 0 0 0
O 0.24403400918126122	0.005324410367922068	0.0009491742691616169	 0 0 0
O 0.7559659238034157	-0.00532446408358702	-0.0009491754927748481	 0 0 0
O 0.2559659880219085	0.494675618163347	0.5009491697243125	 0 0 0
O 0.7440339592965235	0.505324464083587	0.49905082450722515	 0 0 0
O 0.7559659238034157	0.005324410367922068	0.49905082450722515	 0 0 0
O 0.24403400918126122	-0.00532446408358702	0.5009491697243125	 0 0 0
O 0.7440339592965235	0.494675618163347	-0.0009491754927748481	 0 0 0
O 0.2559659880219085	0.505324464083587	0.0009491742691616169	 0 0 0
O 0.5008844989678365	0.24388018596424052	0.47642696685987646	 0 0 0
O 0.49911550103216357	0.7561198564546915	0.5235731206933112	 0 0 0
O -0.000884504736298864	0.2561198087917027	0.9764269998598765	 0 0 0
O 0.0008844902277418925	0.7438802336272292	0.023572946852570238	 0 0 0
O 0.49911550103216357	0.24388018596424052	0.023572946852570238	 0 0 0
O 0.5008844989678365	0.7561198564546915	0.9764269998598765	 0 0 0
O 0.0008844902277418925	0.2561198087917027	0.5235731206933112	 0 0 0
O -0.000884504736298864	0.7438802336272292	0.47642696685987646	 0 0 0
O 0.7264269377567192	0.2486645139009123	0.7486592134917689	 0 0 0
O 0.27357297469009295	0.7513355339368784	0.25134072805820074	 0 0 0
O 0.7735731791433416	0.2513354860990877	0.24865928330392223	 0 0 0
O 0.22642698285987645	0.7486645563198443	0.7513406696081703	 0 0 0
O 0.27357297469009295	0.2486645139009123	0.7513406696081703	 0 0 0
O 0.7264269377567192	0.7513355339368784	0.24865928330392223	 0 0 0
O 0.22642698285987645	0.2513354860990877	0.25134072805820074	 0 0 0
O 0.7735731791433416	0.7486645563198443	0.7486592134917689	 0 0 0

K_POINTS automatic
6 6 6 0 0 0
