
&CONTROL
    calculation   = 'vc-relax'
    restart_mode  = 'from_scratch'
    prefix        = 'Landau_10'
    pseudo_dir    = '/cluster/scratch/mnoe/QE/pps'
    outdir        = './'
    forc_conv_thr = 1.0d-7
    etot_conv_thr = 1.0d-7

/
&SYSTEM
    ibrav       = 0
    nat         = 32
    ntyp        = 2
    ecutwfc     = 120
    occupations = 'smearing'
    degauss     = 7.35d-4
    tot_charge  = -0.0
/
&ELECTRONS
    conv_thr    = 1.0d-8
    diagonalization = 'david'
/


&IONS
ion_dynamics = 'bfgs'
/

&CELL
cell_dynamics = 'bfgs'
cell_dofree = 'all'
/
CELL_PARAMETERS angstrom
        7.3236460686         0.0000000000         0.0000000000
        0.0000000000         7.7495899200         0.0000000000
        0.0000000000         0.0000000000         7.3236460686

ATOMIC_SPECIES
W 183.84 W_ONCV_LDA-4.0.upf
O 15.9994 O_ONCV_LDA-3.0.upf

ATOMIC_POSITIONS crystal
W 0.245380002	0.2836283274639305	0.00437	 0 0 0
W 0.754620015	0.7163716725360695	0.995630015	 0 0 0
W 0.254620015	0.21637168519288086	0.504369985	 0 0 0
W 0.745379985	0.7836282964639305	0.495629982	 0 0 0
W 0.754620015	0.2836283274639305	0.495629982	 0 0 0
W 0.245380002	0.7163716725360695	0.504369985	 0 0 0
W 0.745379985	0.21637168519288086	0.995630015	 0 0 0
W 0.254620015	0.7836282964639305	0.00437	 0 0 0
O 0.241469999	0.011666073492809013	0.00136	 0 0 0
O 0.758530049	0.9883339537249305	0.998640008	 0 0 0
O 0.258530017	0.4883339178823407	0.501359992	 0 0 0
O 0.741469951	0.511666055960249	0.498640008	 0 0 0
O 0.758530049	0.011666073492809013	0.498640008	 0 0 0
O 0.241469999	0.9883339537249305	0.501359992	 0 0 0
O 0.741469951	0.4883339178823407	0.998640008	 0 0 0
O 0.258530017	0.511666055960249	0.00136	 0 0 0
O 0.50125998	0.241249988	0.4586800079573852	 0 0 0
O 0.49874002	0.758750012	0.5413199691964321	 0 0 0
O 0.99874002	0.258750012	0.9586800334591816	 0 0 0
O 0.001260042	0.741249958	0.04132001491596805	 0 0 0
O 0.49874002	0.241249988	0.04132001491596805	 0 0 0
O 0.50125998	0.758750012	0.9586800334591816	 0 0 0
O 0.001260042	0.258750012	0.5413199691964321	 0 0 0
O 0.99874002	0.741249958	0.4586800079573852	 0 0 0
O 0.7086800461124002	0.248090004	0.748080045	 0 0 0
O 0.29131999954081833	0.75190995	0.251919987	 0 0 0
O 0.7913199640414171	0.251909996	0.248080013	 0 0 0
O 0.2086800241135978	0.74809002	0.751919955	 0 0 0
O 0.29131999954081833	0.248090004	0.751919955	 0 0 0
O 0.7086800461124002	0.75190995	0.248080013	 0 0 0
O 0.2086800241135978	0.251909996	0.251919987	 0 0 0
O 0.7913199640414171	0.74809002	0.748080045	 0 0 0

K_POINTS automatic
6 6 6 0 0 0
