
&CONTROL
    calculation   = 'vc-relax'
    restart_mode  = 'from_scratch'
    prefix        = 'Landau_30'
    pseudo_dir    = '/cluster/scratch/mnoe/QE/pps'
    outdir        = './'
    forc_conv_thr = 1.0d-7
    etot_conv_thr = 1.0d-7

/
&SYSTEM
    ibrav       = 0
    nat         = 32
    ntyp        = 2
    ecutwfc     = 120
    occupations = 'smearing'
    degauss     = 7.35d-4
    tot_charge  = -0.0
/
&ELECTRONS
    conv_thr    = 1.0d-8
    diagonalization = 'david'
/


&IONS
ion_dynamics = 'bfgs'
/

&CELL
cell_dynamics = 'bfgs'
cell_dofree = 'all'
/
CELL_PARAMETERS angstrom
        7.3236460686         0.0000000000         0.0000000000
        0.0000000000         7.7495899200         0.0000000000
        0.0000000000         0.0000000000         7.3236460686

ATOMIC_SPECIES
W 183.84 W_ONCV_LDA-4.0.upf
O 15.9994 O_ONCV_LDA-3.0.upf

ATOMIC_POSITIONS crystal
0.236129994	0.28457510212180004	0.0131	 0 0 0
0.763870006	0.7154248978782	0.986899942	 0 0 0
0.263870006	0.21542490928045	0.513100026	 0 0 0
0.736129994	0.7845750711218	0.486900007	 0 0 0
0.763870006	0.28457510212180004	0.486900007	 0 0 0
0.236129994	0.7154248978782	0.513100026	 0 0 0
0.736129994	0.21542490928045	0.986899942	 0 0 0
0.263870006	0.7845750711218	0.0131	 0 0 0
0.224409998	0.01345758723985	0.00408	 0 0 0
0.775590018	0.9865424422361	0.995920023	 0 0 0
0.275590018	0.48654240380075003	0.504080009	 0 0 0
0.724409982	0.5134575726346	0.495919991	 0 0 0
0.775590018	0.01345758723985	0.495919991	 0 0 0
0.224409998	0.9865424422361	0.504080009	 0 0 0
0.724409982	0.48654240380075003	0.995920023	 0 0 0
0.275590018	0.5134575726346	0.00408	 0 0 0
0.503790033	0.223739997	0.463573637094	 0 0 0
0.496209967	0.776260034	0.53642634549625	 0 0 0
0.996209967	0.276260003	0.9635736585812	 0 0 0
0.003790021	0.723739997	0.0364263894594	 0 0 0
0.496209967	0.223739997	0.0364263894594	 0 0 0
0.503790033	0.776260034	0.9635736585812	 0 0 0
0.003790021	0.276260003	0.53642634549625	 0 0 0
0.996209967	0.723739997	0.463573637094	 0 0 0
0.71357367800905	0.244269997	0.744249968	 0 0 0
0.28642637441880003	0.755730003	0.255749999	 0 0 0
0.7864263375812	0.255730003	0.244250066	 0 0 0
0.21357365333385	0.744269967	0.755750032	 0 0 0
0.28642637441880003	0.244269997	0.755750032	 0 0 0
0.71357367800905	0.755730003	0.244250066	 0 0 0
0.21357365333385	0.255730003	0.255749999	 0 0 0
0.7864263375812	0.744269967	0.744249968	 0 0 0

K_POINTS automatic
6 6 6 0 0 0
