
&CONTROL
    calculation   = 'vc-relax'
    restart_mode  = 'from_scratch'
    prefix        = 'Landau_18'
    pseudo_dir    = '/cluster/scratch/mnoe/QE/pps'
    outdir        = './'
    forc_conv_thr = 1.0d-7
    etot_conv_thr = 1.0d-7

/
&SYSTEM
    ibrav       = 0
    nat         = 32
    ntyp        = 2
    ecutwfc     = 120
    occupations = 'smearing'
    degauss     = 7.35d-4
    tot_charge  = -0.0
/
&ELECTRONS
    conv_thr    = 1.0d-8
    diagonalization = 'david'
/


&IONS
ion_dynamics = 'bfgs'
/

&CELL
cell_dynamics = 'bfgs'
cell_dofree = 'all'
/
CELL_PARAMETERS angstrom
        7.3236460686         0.0000000000         0.0000000000
        0.0000000000         7.7495899200         0.0000000000
        0.0000000000         0.0000000000         7.3236460686

ATOMIC_SPECIES
W 183.84 W_ONCV_LDA-4.0.upf
O 15.9994 O_ONCV_LDA-3.0.upf

ATOMIC_POSITIONS crystal
W 0.22157109200406208	0.2782962944305601	0.003249648840667245	 0 0 0
W 0.7548710800103995	0.7217037055694399	-0.0281963322593328	 0 0 0
W 0.27842890799593795	0.22170372175340522	0.5032496463786575	 0 0 0
W 0.7451288976101331	0.7782963001334869	0.4718036265786575	 0 0 0
W 0.7784288670101331	0.2782962944305601	0.49675035362134246	 0 0 0
W 0.24512890799593795	0.7217037055694399	0.5281963734213425	 0 0 0
W 0.7215711106103995	0.22170372175340522	-0.0032496281406672912	 0 0 0
W 0.25487109200406205	0.7782963001334869	0.028196352959332753	 0 0 0
O 0.21562188282786843	0.007349140098777942	-0.018124645834720655	 0 0 0
O 0.7770558431844223	-0.0073491419620509545	-0.02789865213472062	 0 0 0
O 0.28437808052234803	0.4926508637408759	0.48187530851549576	 0 0 0
O 0.7229441142090344	0.5073491419620509	0.4721013256154957	 0 0 0
O 0.7843780494090344	0.007349140098777942	0.518124672572278	 0 0 0
O 0.22294407152234802	-0.0073491419620509545	0.5278986554722781	 0 0 0
O 0.7156219079844224	0.4926508637408759	0.01812463953472069	 0 0 0
O 0.27705589182786844	0.5073491419620509	0.027898645834720653	 0 0 0
O 0.5097253868530598	0.2133398402320903	0.4582539726380186	 0 0 0
O 0.5006173724530599	0.776357864805109	0.541746033432839	 0 0 0
O -0.009725372727728585	0.2866601327679097	0.9582540056380185	 0 0 0
O -0.0006173736277285723	0.7236422358422404	0.04174601021095069	 0 0 0
O 0.4902746131469401	0.2133398402320903	0.04174601021095069	 0 0 0
O 0.49938262754694007	0.776357864805109	0.9582540056380185	 0 0 0
O 0.009725341853059876	0.2866601327679097	0.541746033432839	 0 0 0
O 0.0006173427530598635	0.7236422358422404	0.4582539726380186	 0 0 0
O 0.7082539855106071	0.26672897856799627	0.746508654782278	 0 0 0
O 0.29174600841853526	0.780481049468091	0.2603146262759406	 0 0 0
O 0.791746052376285	0.23327100120492772	0.2465087099759406	 0 0 0
O 0.2082539886380186	0.7195190514050225	0.7603146295822781	 0 0 0
O 0.29174600841853526	0.26672897856799627	0.7534913632924066	 0 0 0
O 0.7082539855106071	0.780481049468091	0.23968543222405944	 0 0 0
O 0.2082539886380186	0.23327100120492772	0.25349134852405947	 0 0 0
O 0.791746052376285	0.7195190514050225	0.7396853884924066	 0 0 0

K_POINTS automatic
6 6 6 0 0 0
