
&CONTROL
    calculation   = 'vc-relax'
    restart_mode  = 'from_scratch'
    prefix        = 'Landau_18'
    pseudo_dir    = '/cluster/scratch/mnoe/QE/pps'
    outdir        = './'
    forc_conv_thr = 1.0d-7
    etot_conv_thr = 1.0d-7

/
&SYSTEM
    ibrav       = 0
    nat         = 32
    ntyp        = 2
    ecutwfc     = 120
    occupations = 'smearing'
    degauss     = 7.35d-4
    tot_charge  = -0.0
/
&ELECTRONS
    conv_thr    = 1.0d-8
    diagonalization = 'david'
/


&IONS
ion_dynamics = 'bfgs'
/

&CELL
cell_dynamics = 'bfgs'
cell_dofree = 'all'
/
CELL_PARAMETERS angstrom
        7.3236460686         0.0000000000         0.0000000000
        0.0000000000         7.7495899200         0.0000000000
        0.0000000000         0.0000000000         7.3236460686

ATOMIC_SPECIES
W 183.84 W_ONCV_LDA-4.0.upf
O 15.9994 O_ONCV_LDA-3.0.upf

ATOMIC_POSITIONS crystal
W 0.25	0.27935086394612507	0.0	 0 0 0
W 0.7499999866622818	0.7206491360538749	0.0	 0 0 0
W 0.25	0.22064915188748227	0.5	 0 0 0
W 0.7499999866622818	0.779350858787954	0.5	 0 0 0
W 0.7499999866622818	0.27935086394612507	0.5	 0 0 0
W 0.25	0.7206491360538749	0.5	 0 0 0
W 0.7499999866622818	0.22064915188748227	0.0	 0 0 0
W 0.25	0.779350858787954	0.0	 0 0 0
O 0.25	0.007636436109594597	0.0	 0 0 0
O 0.7499999866622818	0.9923635693846503	0.0	 0 0 0
O 0.25	0.49236356422647926	0.5	 0 0 0
O 0.7499999866622818	0.5076364306153497	0.5	 0 0 0
O 0.7499999866622818	0.007636436109594597	0.5	 0 0 0
O 0.25	0.9923635693846503	0.5	 0 0 0
O 0.7499999866622818	0.49236356422647926	0.0	 0 0 0
O 0.25	0.5076364306153497	0.0	 0 0 0
O 0.5	0.25	0.4556753426781933	 0 0 0
O 0.5	0.7499999975041107	0.5443246518308503	 0 0 0
O 0.0	0.25	0.9556753756781934	 0 0 0
O 0.0	0.7499999975041107	0.044324649980799886	 0 0 0
O 0.5	0.25	0.044324649980799886	 0 0 0
O 0.5	0.7499999975041107	0.9556753756781934	 0 0 0
O 0.0	0.25	0.5443246518308503	 0 0 0
O 0.0	0.7499999975041107	0.4556753426781933	 0 0 0
O 0.7056753615068678	0.25	0.7499999866622818	 0 0 0
O 0.2943246439840885	0.7499999975041107	0.25	 0 0 0
O 0.7943246651685685	0.25	0.25	 0 0 0
O 0.20567535867819337	0.7499999975041107	0.7499999866622818	 0 0 0
O 0.2943246439840885	0.25	0.7499999866622818	 0 0 0
O 0.7056753615068678	0.7499999975041107	0.25	 0 0 0
O 0.20567535867819337	0.25	0.25	 0 0 0
O 0.7943246651685685	0.7499999975041107	0.7499999866622818	 0 0 0

K_POINTS automatic
6 6 6 0 0 0
