
&CONTROL
    calculation   = 'vc-relax'
    restart_mode  = 'from_scratch'
    prefix        = 'Landau_1'
    pseudo_dir    = '/cluster/scratch/mnoe/QE/pps'
    outdir        = './'
    forc_conv_thr = 1.0d-7
    etot_conv_thr = 1.0d-7

/
&SYSTEM
    ibrav       = 0
    nat         = 32
    ntyp        = 2
    ecutwfc     = 120
    occupations = 'smearing'
    degauss     = 7.35d-4
    tot_charge  = -0.0
/
&ELECTRONS
    conv_thr    = 1.0d-8
    diagonalization = 'david'
/


&IONS
ion_dynamics = 'bfgs'
/

&CELL
cell_dynamics = 'bfgs'
cell_dofree = 'all'
/
CELL_PARAMETERS angstrom
        7.3236460686         0.0000000000         0.0000000000
        0.0000000000         7.7495899200         0.0000000000
        0.0000000000         0.0000000000         7.3236460686

ATOMIC_SPECIES
W 183.84 W_ONCV_LDA-4.0.upf
O 15.9994 O_ONCV_LDA-3.0.upf

ATOMIC_POSITIONS crystal
W 0.249540001	0.28161238423495416	0.00044	 0 0 0
W 0.750460014683744	0.7183876157650458	0.999559974	 0 0 0
W 0.250459999	0.21838763084731186	0.500439994	 0 0 0
W 0.749539982683744	0.7816123557852002	0.499560006	 0 0 0
W 0.750460014683744	0.28161238423495416	0.499560006	 0 0 0
W 0.249540001	0.7183876157650458	0.500439994	 0 0 0
W 0.749539982683744	0.21838763084731186	0.999559974	 0 0 0
W 0.250459999	0.7816123557852002	0.00044	 0 0 0
O 0.249149997	0.00825254130491065	0.00014	 0 0 0
O 0.750850034683744	0.9917474799675033	0.999860009	 0 0 0
O 0.25085002	0.49174745151774935	0.500140023	 0 0 0
O 0.749149962683744	0.5082525200324967	0.499859977	 0 0 0
O 0.750850034683744	0.00825254130491065	0.499859977	 0 0 0
O 0.249149997	0.9917474799675033	0.500140023	 0 0 0
O 0.749149962683744	0.49174745151774935	0.999860009	 0 0 0
O 0.25085002	0.5082525200324967	0.00014	 0 0 0
O 0.500129996	0.249119995	0.4501454806013411	 0 0 0
O 0.499870004	0.75088002223399	0.5498544891134369	 0 0 0
O 0.999869972	0.250880005	0.950145513601341	 0 0 0
O 0.000129938	0.74912001123399	0.049854533095210964	 0 0 0
O 0.499870004	0.249119995	0.049854533095210964	 0 0 0
O 0.500129996	0.75088002223399	0.950145513601341	 0 0 0
O 0.000129938	0.250880005	0.5498544891134369	 0 0 0
O 0.999869972	0.74912001123399	0.4501454806013411	 0 0 0
O 0.7001455122028191	0.249809988	0.749810001683744	 0 0 0
O 0.29985451808240293	0.75018999823399	0.250190013	 0 0 0
O 0.7998544904296929	0.250190012	0.249809987	 0 0 0
O 0.20014549660134107	0.74980997423399	0.750189995683744	 0 0 0
O 0.29985451808240293	0.249809988	0.750189995683744	 0 0 0
O 0.7001455122028191	0.75018999823399	0.249809987	 0 0 0
O 0.20014549660134107	0.250190012	0.250190013	 0 0 0
O 0.7998544904296929	0.74980997423399	0.749810001683744	 0 0 0

K_POINTS automatic
6 6 6 0 0 0
