&CONTROL
    calculation   = 'scf'
    restart_mode  = 'from_scratch'
    prefix        = 'Landau_19'
    pseudo_dir    = '/cluster/scratch/mnoe/QE/pps'
    outdir        = './'
/
&SYSTEM
    ibrav       = 0
    nat         = 32
    ntyp        = 2
    ecutwfc     = 120
    occupations = 'smearing'
    degauss     = 7.35d-4
    tot_charge  = -0.6
/
&ELECTRONS
    conv_thr    = 1.0d-8
    diagonalization = 'david'
/

CELL_PARAMETERS angstrom
   7.311605357   0.000000000   0.000000000
   0.000000000   7.615756055   0.000000000
   0.000000000   0.000000000   7.367832583

ATOMIC_SPECIES
W 183.84 W_ONCV_LDA-4.0.upf
O 15.9994 O_ONCV_LDA-3.0.upf

ATOMIC_POSITIONS crystal
W 0.232429994         0.281860003         0.016600000
W 0.767569990         0.718139997         0.983399982
W 0.267570023         0.218140012         0.516600018
W 0.732430010         0.781859972         0.483399982
W 0.767569990         0.281860003         0.483399982
W 0.232429994         0.718139997         0.516600018
W 0.732430010         0.218140012         0.983399982
W 0.267570023         0.781859972         0.016600000
O 0.217580004         0.008320000         0.005160000
O 0.782419996         0.991680023         0.994840012
O 0.282419996         0.491679992         0.505159988
O 0.717580004         0.508319977         0.494840012
O 0.782419996         0.008320000         0.494840012
O 0.217580004         0.991680023         0.505159988
O 0.717580004         0.491679992         0.994840012
O 0.282419996         0.508319977         0.005160000
O 0.504800017         0.216739997         0.449540004
O 0.495199983         0.783260019         0.550459963
O 0.995199951         0.283259988         0.949540037
O 0.004800081         0.716740012         0.050460012
O 0.495199983         0.216739997         0.050460012
O 0.504800017         0.783260019         0.949540037
O 0.004800081         0.283259988         0.550459963
O 0.995199951         0.716740012         0.449540004
O 0.699540037         0.242740010         0.742710007
O 0.300459996         0.757259944         0.257290010
O 0.800459963         0.257259990         0.242709990
O 0.199540020         0.742740026         0.757289993
O 0.300459996         0.242740010         0.757289993
O 0.699540037         0.757259944         0.242709990
O 0.199540020         0.257259990         0.257290010
O 0.800459963         0.742740026         0.742710007

K_POINTS automatic
6 6 6 0 0 0
