
&CONTROL
    calculation   = 'vc-relax'
    restart_mode  = 'from_scratch'
    prefix        = 'Landau_39'
    pseudo_dir    = '/cluster/scratch/mnoe/QE/pps'
    outdir        = './'
    forc_conv_thr = 1.0d-7
    etot_conv_thr = 1.0d-7

/
&SYSTEM
    ibrav       = 0
    nat         = 32
    ntyp        = 2
    ecutwfc     = 120
    occupations = 'smearing'
    degauss     = 7.35d-4
    tot_charge  = -0.0
/
&ELECTRONS
    conv_thr    = 1.0d-8
    diagonalization = 'david'
/


&IONS
ion_dynamics = 'bfgs'
/

&CELL
cell_dynamics = 'bfgs'
cell_dofree = 'all'
/
CELL_PARAMETERS angstrom
        7.3236460686         0.0000000000         0.0000000000
        0.0000000000         7.7495899200         0.0000000000
        0.0000000000         0.0000000000         7.3236460686

ATOMIC_SPECIES
W 183.84 W_ONCV_LDA-4.0.upf
O 15.9994 O_ONCV_LDA-3.0.upf

ATOMIC_POSITIONS crystal
W 0.23196	0.28875646840932906	0.01704	 0 0 0
W 0.768040033	0.711243531590671	0.982959956	 0 0 0
W 0.26804	0.2112435374522354	0.517040012	 0 0 0
W 0.731959967	0.788756437409329	0.482959988	 0 0 0
W 0.768040033	0.28875646840932906	0.482959988	 0 0 0
W 0.23196	0.711243531590671	0.517040012	 0 0 0
W 0.731959967	0.2112435374522354	0.982959956	 0 0 0
W 0.26804	0.788756437409329	0.01704	 0 0 0
O 0.216730001	0.021369686621955156	0.0053	 0 0 0
O 0.783270032	0.9786303528272289	0.994700022	 0 0 0
O 0.283269999	0.47863030294112874	0.505299978	 0 0 0
O 0.716729968	0.5213696849449716	0.494700022	 0 0 0
O 0.783270032	0.021369686621955156	0.494700022	 0 0 0
O 0.216730001	0.9786303528272289	0.505299978	 0 0 0
O 0.716729968	0.47863030294112874	0.994700022	 0 0 0
O 0.283269999	0.5213696849449716	0.0053	 0 0 0
O 0.504930013	0.215869991	0.48518601943380235	 0 0 0
O 0.495069987	0.784129963	0.5148139871660852	 0 0 0
O 0.995069987	0.284129994	0.9851860231908085	 0 0 0
O 0.004930019	0.715870006	0.014814023372275394	 0 0 0
O 0.495069987	0.215869991	0.014814023372275394	 0 0 0
O 0.504930013	0.784129963	0.9851860231908085	 0 0 0
O 0.004930019	0.284129994	0.5148139871660852	 0 0 0
O 0.995069987	0.715870006	0.48518601943380235	 0 0 0
O 0.7351860725383605	0.242549998	0.742519945	 0 0 0
O 0.26481400980919156	0.757449956	0.257480022	 0 0 0
O 0.7648139670615269	0.257449986	0.242519978	 0 0 0
O 0.23518603604303134	0.742550014	0.757480055	 0 0 0
O 0.26481400980919156	0.242549998	0.757480055	 0 0 0
O 0.7351860725383605	0.757449956	0.242519978	 0 0 0
O 0.23518603604303134	0.257449986	0.257480022	 0 0 0
O 0.7648139670615269	0.742550014	0.742519945	 0 0 0

K_POINTS automatic
6 6 6 0 0 0
