
&CONTROL
    calculation   = 'vc-relax'
    restart_mode  = 'from_scratch'
    prefix        = 'Landau_5'
    pseudo_dir    = '/cluster/scratch/mnoe/QE/pps'
    outdir        = './'
    forc_conv_thr = 1.0d-7
    etot_conv_thr = 1.0d-7

/
&SYSTEM
    ibrav       = 0
    nat         = 32
    ntyp        = 2
    ecutwfc     = 120
    occupations = 'smearing'
    degauss     = 7.35d-4
    tot_charge  = -0.0
/
&ELECTRONS
    conv_thr    = 1.0d-8
    diagonalization = 'david'
/


&IONS
ion_dynamics = 'bfgs'
/

&CELL
cell_dynamics = 'bfgs'
cell_dofree = 'all'
/
CELL_PARAMETERS angstrom
        7.3236460686         0.0000000000         0.0000000000
        0.0000000000         7.7495899200         0.0000000000
        0.0000000000         0.0000000000         7.3236460686

ATOMIC_SPECIES
W 183.84 W_ONCV_LDA-4.0.upf
O 15.9994 O_ONCV_LDA-3.0.upf

ATOMIC_POSITIONS crystal
W 0.247690009	0.28136291072898817	0.00218	 0 0 0
W 0.7523099723576289	0.7186370892710118	0.997819989	 0 0 0
W 0.252309975	0.21863710443616002	0.502179979	 0 0 0
W 0.7476900223576289	0.7813628848485822	0.497819989	 0 0 0
W 0.7523099723576289	0.28136291072898817	0.497819989	 0 0 0
W 0.247690009	0.7186370892710118	0.502179979	 0 0 0
W 0.7476900223576289	0.21863710443616002	0.997819989	 0 0 0
W 0.252309975	0.7813628848485822	0.00218	 0 0 0
O 0.245729994	0.008184577323389643	0.00068	 0 0 0
O 0.7542700353576289	0.9918154422084983	0.999319971	 0 0 0
O 0.254270022	0.49181541632809234	0.500680029	 0 0 0
O 0.7457299593576289	0.5081845577915017	0.499320004	 0 0 0
O 0.7542700353576289	0.008184577323389643	0.499320004	 0 0 0
O 0.245729994	0.9918154422084983	0.500680029	 0 0 0
O 0.7457299593576289	0.49181541632809234	0.999319971	 0 0 0
O 0.254270022	0.5081845577915017	0.00068	 0 0 0
O 0.500630023	0.245620002	0.4507554924091657	 0 0 0
O 0.499369977	0.754379984477223	0.5492444800407248	 0 0 0
O 0.999369977	0.254379982	0.9507555254091657	 0 0 0
O 0.000630021	0.745619989477223	0.04924451896668481	 0 0 0
O 0.499369977	0.245620002	0.04924451896668481	 0 0 0
O 0.500630023	0.754379984477223	0.9507555254091657	 0 0 0
O 0.000630021	0.254379982	0.5492444800407248	 0 0 0
O 0.999369977	0.745619989477223	0.4507554924091657	 0 0 0
O 0.7007555226016464	0.249039987	0.7490399873576289	 0 0 0
O 0.29924450494846316	0.750960015477223	0.250959994	 0 0 0
O 0.7992444826830959	0.250959997	0.249040006	 0 0 0
O 0.20075550840916573	0.749040020477223	0.7509600073576289	 0 0 0
O 0.29924450494846316	0.249039987	0.7509600073576289	 0 0 0
O 0.7007555226016464	0.750960015477223	0.249040006	 0 0 0
O 0.20075550840916573	0.250959997	0.250959994	 0 0 0
O 0.7992444826830959	0.749040020477223	0.7490399873576289	 0 0 0

K_POINTS automatic
6 6 6 0 0 0
