
&CONTROL
    calculation   = 'vc-relax'
    restart_mode  = 'from_scratch'
    prefix        = 'Landau_7'
    pseudo_dir    = '/cluster/scratch/mnoe/QE/pps'
    outdir        = './'
    forc_conv_thr = 1.0d-7
    etot_conv_thr = 1.0d-7

/
&SYSTEM
    ibrav       = 0
    nat         = 32
    ntyp        = 2
    ecutwfc     = 120
    occupations = 'smearing'
    degauss     = 7.35d-4
    tot_charge  = -0.0
/
&ELECTRONS
    conv_thr    = 1.0d-8
    diagonalization = 'david'
/


&IONS
ion_dynamics = 'bfgs'
/

&CELL
cell_dynamics = 'bfgs'
cell_dofree = 'all'
/
CELL_PARAMETERS angstrom
        7.3236460686         0.0000000000         0.0000000000
        0.0000000000         7.7495899200         0.0000000000
        0.0000000000         0.0000000000         7.3236460686

ATOMIC_SPECIES
W 183.84 W_ONCV_LDA-4.0.upf
O 15.9994 O_ONCV_LDA-3.0.upf

ATOMIC_POSITIONS crystal
W 0.246759999	0.28047333791574325	0.00306	 0 0 0
W 0.7532399606289665	0.7195266620842568	0.996940001	 0 0 0
W 0.253239984	0.21952667754494637	0.503059999	 0 0 0
W 0.7467600246289664	0.7804733211971207	0.496940001	 0 0 0
W 0.7532399606289665	0.28047333791574325	0.496940001	 0 0 0
W 0.246759999	0.7195266620842568	0.503059999	 0 0 0
W 0.7467600246289664	0.21952667754494637	0.996940001	 0 0 0
W 0.253239984	0.7804733211971207	0.00306	 0 0 0
O 0.244030004	0.007942231307499643	0.00095	 0 0 0
O 0.7559699726289665	0.9920577820180189	0.999050017	 0 0 0
O 0.255969996	0.4920577652993963	0.500949983	 0 0 0
O 0.7440300126289664	0.5079422179819811	0.499049985	 0 0 0
O 0.7559699726289665	0.007942231307499643	0.499049985	 0 0 0
O 0.244030004	0.9920577820180189	0.500949983	 0 0 0
O 0.7440300126289664	0.4920577652993963	0.999050017	 0 0 0
O 0.255969996	0.5079422179819811	0.00095	 0 0 0
O 0.500879987	0.243870006	0.45293067296750994	 0 0 0
O 0.499120013	0.756129969910344	0.5470693092352467	 0 0 0
O 0.999120013	0.256129978	0.95293070596751	 0 0 0
O 0.000880003	0.7438700129103439	0.0470693301331814	 0 0 0
O 0.499120013	0.243870006	0.0470693301331814	 0 0 0
O 0.500879987	0.756129969910344	0.95293070596751	 0 0 0
O 0.000880003	0.256129978	0.5470693092352467	 0 0 0
O 0.999120013	0.7438700129103439	0.45293067296750994	 0 0 0
O 0.7029306981357868	0.248659994	0.7486599896289664	 0 0 0
O 0.29706931966145655	0.7513400439103439	0.25133997	 0 0 0
O 0.7970693166062802	0.251340006	0.248660095	 0 0 0
O 0.20293068896750996	0.748660000910344	0.7513399956289665	 0 0 0
O 0.29706931966145655	0.248659994	0.7513399956289665	 0 0 0
O 0.7029306981357868	0.7513400439103439	0.248660095	 0 0 0
O 0.20293068896750996	0.251340006	0.25133997	 0 0 0
O 0.7970693166062802	0.748660000910344	0.7486599896289664	 0 0 0

K_POINTS automatic
6 6 6 0 0 0
