
&CONTROL
    calculation   = 'vc-relax'
    restart_mode  = 'from_scratch'
    prefix        = 'Landau_39'
    pseudo_dir    = '/cluster/scratch/mnoe/QE/pps'
    outdir        = './'
    forc_conv_thr = 1.0d-7
    etot_conv_thr = 1.0d-7

/
&SYSTEM
    ibrav       = 0
    nat         = 32
    ntyp        = 2
    ecutwfc     = 120
    occupations = 'smearing'
    degauss     = 7.35d-4
    tot_charge  = -0.0
/
&ELECTRONS
    conv_thr    = 1.0d-8
    diagonalization = 'david'
/


&IONS
ion_dynamics = 'bfgs'
/

&CELL
cell_dynamics = 'bfgs'
cell_dofree = 'all'
/
CELL_PARAMETERS angstrom
        7.3236460686         0.0000000000         0.0000000000
        0.0000000000         7.7495899200         0.0000000000
        0.0000000000         0.0000000000         7.3236460686

ATOMIC_SPECIES
W 183.84 W_ONCV_LDA-4.0.upf
O 15.9994 O_ONCV_LDA-3.0.upf

ATOMIC_POSITIONS crystal
W 0.23196	0.2779826832861076	0.01704	 0 0 0
W 0.7680400123895051	0.7220173167138925	0.982959956	 0 0 0
W 0.26804	0.2220173330020483	0.517040012	 0 0 0
W 0.7319599463895051	0.7779826922189413	0.482959988	 0 0 0
W 0.7680400123895051	0.2779826832861076	0.482959988	 0 0 0
W 0.23196	0.7220173167138925	0.517040012	 0 0 0
W 0.7319599463895051	0.2220173330020483	0.982959956	 0 0 0
W 0.26804	0.7779826922189413	0.01704	 0 0 0
O 0.216730001	0.007263703122439228	0.0053	 0 0 0
O 0.7832700113895051	0.9927362928262863	0.994700022	 0 0 0
O 0.283269999	0.4927363017591201	0.505299978	 0 0 0
O 0.7167299473895051	0.5072637071737137	0.494700022	 0 0 0
O 0.7832700113895051	0.007263703122439228	0.494700022	 0 0 0
O 0.216730001	0.9927362928262863	0.505299978	 0 0 0
O 0.7167299473895051	0.4927363017591201	0.994700022	 0 0 0
O 0.283269999	0.5072637071737137	0.0053	 0 0 0
O 0.504930013	0.215869991	0.4590208135914925	 0 0 0
O 0.495069987	0.784129982322339	0.5409791959176531	 0 0 0
O 0.995069987	0.284129994	0.9590208465914924	 0 0 0
O 0.004930019	0.7158700253223389	0.040979166340141523	 0 0 0
O 0.495069987	0.215869991	0.040979166340141523	 0 0 0
O 0.504930013	0.784129982322339	0.9590208465914924	 0 0 0
O 0.004930019	0.284129994	0.5409791959176531	 0 0 0
O 0.995069987	0.7158700253223389	0.4590208135914925	 0 0 0
O 0.7090208246928418	0.242549998	0.7425199243895051	 0 0 0
O 0.29097916579801264	0.7574499753223389	0.257480022	 0 0 0
O 0.7909792165281478	0.257449986	0.242519978	 0 0 0
O 0.2090208295914925	0.7425500333223389	0.7574800343895052	 0 0 0
O 0.29097916579801264	0.242549998	0.7574800343895052	 0 0 0
O 0.7090208246928418	0.7574499753223389	0.242519978	 0 0 0
O 0.2090208295914925	0.257449986	0.257480022	 0 0 0
O 0.7909792165281478	0.7425500333223389	0.7425199243895051	 0 0 0

K_POINTS automatic
6 6 6 0 0 0
