
&CONTROL
    calculation   = 'vc-relax'
    restart_mode  = 'from_scratch'
    prefix        = 'Landau_19'
    pseudo_dir    = '/cluster/scratch/mnoe/QE/pps'
    outdir        = './'
    forc_conv_thr = 1.0d-7
    etot_conv_thr = 1.0d-7

/
&SYSTEM
    ibrav       = 0
    nat         = 32
    ntyp        = 2
    ecutwfc     = 120
    occupations = 'smearing'
    degauss     = 7.35d-4
    tot_charge  = -0.0
/
&ELECTRONS
    conv_thr    = 1.0d-8
    diagonalization = 'david'
/


&IONS
ion_dynamics = 'bfgs'
/

&CELL
cell_dynamics = 'bfgs'
cell_dofree = 'all'
/
CELL_PARAMETERS angstrom
        7.3236460686         0.0000000000         0.0000000000
        0.0000000000         7.7495899200         0.0000000000
        0.0000000000         0.0000000000         7.3236460686

ATOMIC_SPECIES
W 183.84 W_ONCV_LDA-4.0.upf
O 15.9994 O_ONCV_LDA-3.0.upf

ATOMIC_POSITIONS crystal
0.26709001800000004	0.281860003	0.25049004100000005	 0 0 0
-0.250490032	0.718139997	-0.73290995	 0 0 0
0.23290998199999996	0.218140012	0.7504899999999999	 0 0 0
0.750490041	0.781859972	0.767090018	 0 0 0
0.732909959	0.281860003	0.7495100000000001	 0 0 0
0.25048999999999993	0.718139997	0.732909982	 0 0 0
-0.23290994999999992	0.218140012	-0.7504900320000001	 0 0 0
0.24951000000000007	0.781859972	0.232909959	 0 0 0
0.268789992	0.00832	0.263629998	 0 0 0
-0.26363000400000003	0.991680023	-0.7312100080000001	 0 0 0
0.23120999200000003	0.491679992	0.76363002	 0 0 0
0.763629998	0.508319977	0.768790008	 0 0 0
0.731210002	0.00832	0.736369996	 0 0 0
0.26363000400000003	0.991680023	0.731210008	 0 0 0
-0.23121000800000002	0.491679992	-0.7636300040000001	 0 0 0
0.23636997999999998	0.508319977	0.23121000199999997	 0 0 0
0.4939599920000002	0.270259997	0.6995400039999999	 0 0 0
0.4987599760000001	0.736999979	0.800459963	 0 0 0
-0.9939601069999999	0.22974001900000002	1.199540037	 0 0 0
0.0012400130000000112	0.7629999929999999	0.300460012	 0 0 0
0.5060400079999999	0.270259997	0.300460012	 0 0 0
0.501240024	0.736999979	1.199540037	 0 0 0
-0.006039920000000005	0.22974001900000002	0.800459963	 0 0 0
-1.0012400399999999	0.7629999929999999	0.6995400039999999	 0 0 0
0.6995400369999999	0.23699999300000002	2.001240057	 0 0 0
0.300459996	0.7297400199999999	0.493960009	 0 0 0
0.800459963	0.263000023	0.501239942	 0 0 0
0.19954001999999996	0.770259952	1.9939600250000002	 0 0 0
0.300459996	0.23699999300000002	0.9987599050000001	 0 0 0
0.699540037	0.7297400199999999	0.5060399259999999	 0 0 0
0.19954002	0.263000023	0.49875999299999996	 0 0 0
0.800459963	0.770259952	1.006039937	 0 0 0

K_POINTS automatic
6 6 6 0 0 0
