
&CONTROL
    calculation   = 'vc-relax'
    restart_mode  = 'from_scratch'
    prefix        = 'Landau_19'
    pseudo_dir    = '/cluster/scratch/mnoe/QE/pps'
    outdir        = './'
    forc_conv_thr = 1.0d-7
    etot_conv_thr = 1.0d-7

/
&SYSTEM
    ibrav       = 0
    nat         = 32
    ntyp        = 2
    ecutwfc     = 120
    occupations = 'smearing'
    degauss     = 7.35d-4
    tot_charge  = -0.0
/
&ELECTRONS
    conv_thr    = 1.0d-8
    diagonalization = 'david'
/


&IONS
ion_dynamics = 'bfgs'
/

&CELL
cell_dynamics = 'bfgs'
cell_dofree = 'all'
/
CELL_PARAMETERS angstrom
        7.3236460686         0.0000000000         0.0000000000
        0.0000000000         7.3236460686         0.0000000000
        0.0000000000         0.0000000000         7.7495899200

ATOMIC_SPECIES
W 183.84 W_ONCV_LDA-4.0.upf
O 15.9994 O_ONCV_LDA-3.0.upf

ATOMIC_POSITIONS crystal
W 0.241760007         0.241330005         0.218119991 0 0 0
W 0.758239960         0.758669995         0.218119991 0 0 0
W 0.241330005         0.758239960         0.781880024 0 0 0
W 0.758669995         0.241760007         0.781880024 0 0 0
W 0.258239993         0.741330038         0.281880024 0 0 0
W 0.741760007         0.258669995         0.281880024 0 0 0
W 0.258669995         0.258239993         0.718119976 0 0 0
W 0.741330038         0.741760007         0.718119976 0 0 0
O 0.232439996         0.232530004         0.491670026 0 0 0
O 0.767560004         0.767470012         0.491670026 0 0 0
O 0.232530004         0.767560004         0.508329974 0 0 0
O 0.767470012         0.232439996         0.508329974 0 0 0
O 0.267560004         0.732530020         0.008329987 0 0 0
O 0.732439963         0.267469996         0.008329987 0 0 0
O 0.267469996         0.267560004         0.991670026 0 0 0
O 0.732530020         0.732439963         0.991670026 0 0 0
O 0.199410008         0.497600004         0.264840004 0 0 0
O 0.800589976         0.502400028         0.264840004 0 0 0
O 0.497600004         0.800589976         0.735159996 0 0 0
O 0.502400028         0.199410008         0.735159996 0 0 0
O 0.300589976         0.997599972         0.235159996 0 0 0
O 0.699409992         0.002400011         0.235159996 0 0 0
O 0.002400011         0.300589976         0.764840004 0 0 0
O 0.997599972         0.699409992         0.764840004 0 0 0
O 0.996339952         0.199410008         0.229029992 0 0 0
O 0.003660023         0.800589976         0.229029992 0 0 0
O 0.199410008         0.003660023         0.770969961 0 0 0
O 0.800589976         0.996339952         0.770969961 0 0 0
O 0.503660016         0.699409992         0.270969992 0 0 0
O 0.496340049         0.300589976         0.270969992 0 0 0
O 0.300589976         0.503660016         0.729030039 0 0 0
O 0.699409992         0.496340049         0.729030039 0 0 0

K_POINTS automatic
6 6 6 0 0 0
