
&CONTROL
    calculation   = 'vc-relax'
    restart_mode  = 'from_scratch'
    prefix        = 'Landau_3'
    pseudo_dir    = '/cluster/scratch/mnoe/QE/pps'
    outdir        = './'
    forc_conv_thr = 1.0d-7
    etot_conv_thr = 1.0d-7

/
&SYSTEM
    ibrav       = 0
    nat         = 32
    ntyp        = 2
    ecutwfc     = 120
    occupations = 'smearing'
    degauss     = 7.35d-4
    tot_charge  = -0.0
/
&ELECTRONS
    conv_thr    = 1.0d-8
    diagonalization = 'david'
/


&IONS
ion_dynamics = 'bfgs'
/

&CELL
cell_dynamics = 'bfgs'
cell_dofree = 'all'
/
CELL_PARAMETERS angstrom
        7.3236460686         0.0000000000         0.0000000000
        0.0000000000         7.3236460686         0.0000000000
        0.0000000000         0.0000000000         7.7495899200

ATOMIC_SPECIES
W 183.84 W_ONCV_LDA-4.0.upf
O 15.9994 O_ONCV_LDA-3.0.upf

ATOMIC_POSITIONS crystal
W 0.248699998         0.248629997         0.218119991 0 0 0
W 0.751299953         0.751370019         0.218119991 0 0 0
W 0.248629997         0.751299953         0.781880024 0 0 0
W 0.751370019         0.248699998         0.781880024 0 0 0
W 0.251300002         0.748630013         0.281880024 0 0 0
W 0.748700014         0.251370019         0.281880024 0 0 0
W 0.251370019         0.251300002         0.718119976 0 0 0
W 0.748630013         0.748700014         0.718119976 0 0 0
O 0.247229991         0.247240003         0.491670026 0 0 0
O 0.752769976         0.752760013         0.491670026 0 0 0
O 0.247240003         0.752769976         0.508329974 0 0 0
O 0.752760013         0.247229991         0.508329974 0 0 0
O 0.252770009         0.747240019         0.008329987 0 0 0
O 0.747229991         0.252759997         0.008329987 0 0 0
O 0.252759997         0.252770009         0.991670026 0 0 0
O 0.747240019         0.747229991         0.991670026 0 0 0
O 0.199410008         0.499619975         0.252339982 0 0 0
O 0.800589976         0.500380025         0.252339982 0 0 0
O 0.499619975         0.800589976         0.747660064 0 0 0
O 0.500380025         0.199410008         0.747660064 0 0 0
O 0.300589976         0.999619975         0.247660018 0 0 0
O 0.699409992         0.000380009         0.247660018 0 0 0
O 0.000380009         0.300589976         0.752339936 0 0 0
O 0.999619975         0.699409992         0.752339936 0 0 0
O 0.999420000         0.199410008         0.246690008 0 0 0
O 0.000580013         0.800589976         0.246690008 0 0 0
O 0.199410008         0.000580013         0.753309962 0 0 0
O 0.800589976         0.999420000         0.753309962 0 0 0
O 0.500580000         0.699409992         0.253309992 0 0 0
O 0.499419935         0.300589976         0.253309992 0 0 0
O 0.300589976         0.500580000         0.746690038 0 0 0
O 0.699409992         0.499419935         0.746690038 0 0 0

K_POINTS automatic
6 6 6 0 0 0
