&CONTROL
    calculation   = 'scf'
    restart_mode  = 'from_scratch'
    prefix        = 'Landau_16'
    pseudo_dir    = '/cluster/scratch/mnoe/QE/pps'
    outdir        = './'
/
&SYSTEM
    ibrav       = 0
    nat         = 32
    ntyp        = 2
    ecutwfc     = 120
    occupations = 'smearing'
    degauss     = 7.35d-4
    tot_charge  = -0.6
/
&ELECTRONS
    conv_thr    = 1.0d-8
    diagonalization = 'david'
/

CELL_PARAMETERS angstrom
   7.492491457   0.000000000   0.000000000
   0.000000000   7.585688688   0.000000000
   0.000000000   0.000000000   7.485757113

ATOMIC_SPECIES
W 183.84 W_ONCV_LDA-4.0.upf
O 15.9994 O_ONCV_LDA-3.0.upf

ATOMIC_POSITIONS crystal
W 0.23793089301581408	0.2694599554539269	-0.0053786391176173665	
W 0.7453207376399235	0.7305400445460731	-0.012357095468066867	
W 0.26206910698418595	0.23054006366572147	0.4946213547307918	
W 0.7546791415562504	0.7694600521630337	0.4876428897920823	
W 0.7620690328810023	0.2694599554539269	0.5053786452692082	
W 0.2546792088687168	0.7305400445460731	0.5123571102079176	
W 0.7379308463151715	0.23054006366572147	0.005378643711337805	
W 0.24532079113128322	0.7694600521630337	0.012357100061787306	
O 0.2405804704016022	0.004941859307193182	-0.015275501329192255	
O 0.7542137632816642	-0.004941922819813864	-0.017444537687659318	
O 0.2594195105843897	0.4950581738892929	0.48472447765952986	
O 0.7457861015341674	0.5049419228198139	0.48255544649396415	
O 0.7594194505419851	0.004941859307193182	0.5152755234189957	
O 0.24578614519895986	-0.004941922819813864	0.5174445545845615	
O 0.7405804142738464	0.4950581738892929	0.015275499931103432	
O 0.25421383578703205	0.5049419228198139	0.017444536289570493	
O 0.5046871875619577	0.2393453658917187	0.47986056005023914	
O 0.5026659473682573	0.7533303053391548	0.5201395428981646	
O -0.004687162995539723	0.260654628116472	0.9798605930502391	
O -0.0026659261971978404	0.7466698294739513	0.0201393405995999	
O 0.4953128124380422	0.2393453658917187	0.0201393405995999	
O 0.4973340526317427	0.7533303053391548	0.9798605930502391	
O 0.004687177575608985	0.260654628116472	0.5201395428981646	
O 0.0026659407772671026	0.7466698294739513	0.47986056005023914	
O 0.7298605230162131	0.26525593088171273	0.750893535025978	
O 0.270139374035383	0.7683078358302009	0.2539573913429021	
O 0.7701396088125423	0.234744054737945	0.25089359810423256	
O 0.22986057605023916	0.7316922987032874	0.753957341246901	
O 0.270139374035383	0.26525593088171273	0.7491063729308804	
O 0.7298605230162131	0.7683078358302009	0.24604262163935142	
O 0.22986057605023916	0.234744054737945	0.24910641487802093	
O 0.7701396088125423	0.7316922987032874	0.7460425667099575	

K_POINTS automatic
6 6 6 0 0 0
