&CONTROL
    calculation   = 'scf'
    restart_mode  = 'from_scratch'
    prefix        = 'Landau_8'
    pseudo_dir    = '/cluster/scratch/mnoe/QE/pps'
    outdir        = './'
/
&SYSTEM
    ibrav       = 0
    nat         = 16
    ntyp        = 2
    ecutwfc     = 120
    occupations = 'smearing'
    degauss     = 7.35d-4
    tot_charge  = -0.075
/
&ELECTRONS
    conv_thr    = 1.0d-8
    diagonalization = 'david'
/

CELL_PARAMETERS angstrom
   5.216979376   0.000000000   0.000000000
   0.000000000   5.216979376   0.000000000
   0.000000000   0.000000000   7.712787910

ATOMIC_SPECIES
W 183.84 W_ONCV_LDA-4.0.upf
O 15.9994 O_ONCV_LDA-3.0.upf

ATOMIC_POSITIONS crystal
W      0.24999999999997963	0.2499999999999637	0.2154040206437953	
W      0.7500000229999821	0.7500000229999932	0.7845959943554313	
W      0.750000023000006	0.7500000230000154	0.28459599435620425	
W      0.24999999999997588	0.2500000000000115	0.7154040056445687	
O     0.24999999999991343	0.24999999999997258	0.486530290565855	
O     0.7500000229999976	0.7500000230001033	0.513469709435334	
O     0.750000022999959	0.750000023000006	0.013469722434146607	
O     0.24999999999992595	0.2500000000000172	0.9865302905646633	
O      0.46345328192926927	0.5365466720707076	0.2500000000000134	
O      0.5365467180792699	0.46345332792073973	0.7499999999999996	
O      0.036546701070816076	0.9634533279291397	0.25000000000000133	
O      0.9634532359208469	0.03654673507918517	0.7500000000000653	
O      0.9634533279291914	0.46345328192917945	0.25000000000005024	
O      0.03654673507926359	0.5365467180792624	0.7499999999999921	
O      0.5365466720707704	0.036546701070786614	0.24999999999996209	
O      0.4634533279208524	0.9634532359208313	0.7499999999999184	

K_POINTS automatic
6 6 6 0 0 0
