&CONTROL
    calculation   = 'scf'
    restart_mode  = 'from_scratch'
    prefix        = 'Landau_5'
    pseudo_dir    = '/cluster/scratch/mnoe/QE/pps'
    outdir        = './'
/
&SYSTEM
    ibrav       = 0
    nat         = 32
    ntyp        = 2
    ecutwfc     = 120
    occupations = 'smearing'
    degauss     = 7.35d-4
    tot_charge  = -0.6
/
&ELECTRONS
    conv_thr    = 1.0d-8
    diagonalization = 'david'
/

CELL_PARAMETERS angstrom
   7.339868650   0.000000000   0.000000000
   0.000000000   7.727630073   0.000000000
   0.000000000   0.000000000   7.343441861

ATOMIC_SPECIES
W 183.84 W_ONCV_LDA-4.0.upf
O 15.9994 O_ONCV_LDA-3.0.upf

ATOMIC_POSITIONS crystal
W 0.245380002	0.2808658184579763	0.00437	
W 0.7546200097152577	0.7191341815420237	0.995630015	
W 0.254620015	0.21913419687232008	0.504369985	
W 0.7453799797152577	0.7808657976971645	0.495629982	
W 0.7546200097152577	0.2808658184579763	0.495629982	
W 0.245380002	0.7191341815420237	0.504369985	
W 0.7453799797152577	0.21913419687232008	0.995630015	
W 0.254620015	0.7808657976971645	0.00437	
O 0.241469999	0.00804915464677929	0.00136	
O 0.7585300437152577	0.9919508614169965	0.998640008	
O 0.258530017	0.49195084065618466	0.501359992	
O 0.7414699457152577	0.5080491385830035	0.498640008	
O 0.7585300437152577	0.00804915464677929	0.498640008	
O 0.241469999	0.9919508614169965	0.501359992	
O 0.7414699457152577	0.49195084065618466	0.998640008	
O 0.258530017	0.5080491385830035	0.00136	
O 0.50125998	0.241249988	0.4519709808183314	
O 0.49874002	0.7587500169544459	0.5480289970814495	
O 0.99874002	0.258750012	0.9519710138183314	
O 0.001260042	0.7412499629544459	0.04802902593336962	
O 0.49874002	0.241249988	0.04802902593336962	
O 0.50125998	0.7587500169544459	0.9519710138183314	
O 0.001260042	0.258750012	0.5480289970814495	
O 0.99874002	0.7412499629544459	0.4519709808183314	
O 0.7019710082032927	0.248090004	0.7480800397152577	
O 0.2980290138969263	0.7519099549544459	0.251919987	
O 0.7980290023661918	0.251909996	0.248080013	
O 0.20197099681833142	0.7480900249544459	0.7519199497152577	
O 0.2980290138969263	0.248090004	0.7519199497152577	
O 0.7019710082032927	0.7519099549544459	0.248080013	
O 0.20197099681833142	0.251909996	0.251919987	
O 0.7980290023661918	0.7480900249544459	0.7480800397152577	

K_POINTS automatic
6 6 6 0 0 0
