
&CONTROL
    calculation   = 'vc-relax'
    restart_mode  = 'from_scratch'
    prefix        = 'Landau_17'
    pseudo_dir    = '/cluster/scratch/mnoe/QE/pps'
    outdir        = './'
    forc_conv_thr = 1.0d-7
    etot_conv_thr = 1.0d-7

/
&SYSTEM
    ibrav       = 0
    nat         = 32
    ntyp        = 2
    ecutwfc     = 120
    occupations = 'smearing'
    degauss     = 7.35d-4
    tot_charge  = -0.0
/
&ELECTRONS
    conv_thr    = 1.0d-8
    diagonalization = 'david'
/


&IONS
ion_dynamics = 'bfgs'
/

&CELL
cell_dynamics = 'bfgs'
cell_dofree = 'all'
/
CELL_PARAMETERS angstrom
        7.3236460686         0.0000000000         0.0000000000
        0.0000000000         7.7495899200         0.0000000000
        0.0000000000         0.0000000000         7.3236460686

ATOMIC_SPECIES
W 183.84 W_ONCV_LDA-4.0.upf
O 15.9994 O_ONCV_LDA-3.0.upf

ATOMIC_POSITIONS crystal
W 0.242140001	0.2793342915965323	0.00743	 0 0 0
W 0.757859969574189	0.7206657084034677	0.992569951	 0 0 0
W 0.257859999	0.22066572424258088	0.507430016	 0 0 0
W 0.742140003574189	0.7793342866090411	0.492570016	 0 0 0
W 0.757859969574189	0.2793342915965323	0.492570016	 0 0 0
W 0.242140001	0.7206657084034677	0.507430016	 0 0 0
W 0.742140003574189	0.22066572424258088	0.992569951	 0 0 0
W 0.257859999	0.7793342866090411	0.00743	 0 0 0
O 0.235499987	0.007631921310088637	0.00231	 0 0 0
O 0.764500015574189	0.9923680840685344	0.997690025	 0 0 0
O 0.264500029	0.4923680790810433	0.502309975	 0 0 0
O 0.735499957574189	0.5076319159314656	0.497689993	 0 0 0
O 0.764500015574189	0.007631921310088637	0.497689993	 0 0 0
O 0.235499987	0.9923680840685344	0.502309975	 0 0 0
O 0.735499957574189	0.4923680790810433	0.997690025	 0 0 0
O 0.264500029	0.5076319159314656	0.00231	 0 0 0
O 0.502149995	0.235119995	0.4557158653336788	 0 0 0
O 0.497850005	0.7648800025866979	0.5442841293570564	 0 0 0
O 0.997850005	0.26487999	0.9557158983336789	 0 0 0
O 0.002150059	0.7351199915866979	0.04428412717115184	 0 0 0
O 0.497850005	0.235119995	0.04428412717115184	 0 0 0
O 0.502149995	0.7648800025866979	0.9557158983336789	 0 0 0
O 0.002150059	0.26487999	0.5442841293570564	 0 0 0
O 0.997850005	0.7351199915866979	0.4557158653336788	 0 0 0
O 0.7057158840687546	0.246749998	0.746739963574189	 0 0 0
O 0.2942841212405101	0.7532500145866979	0.253260023	 0 0 0
O 0.7942841427828675	0.253250002	0.246739977	 0 0 0
O 0.20571588133367882	0.746749980586698	0.7532600095741889	 0 0 0
O 0.2942841212405101	0.246749998	0.7532600095741889	 0 0 0
O 0.7057158840687546	0.7532500145866979	0.246739977	 0 0 0
O 0.20571588133367882	0.253250002	0.253260023	 0 0 0
O 0.7942841427828675	0.746749980586698	0.746739963574189	 0 0 0

K_POINTS automatic
6 6 6 0 0 0
