
&CONTROL
    calculation   = 'vc-relax'
    restart_mode  = 'from_scratch'
    prefix        = 'Landau_39'
    pseudo_dir    = '/cluster/scratch/mnoe/QE/pps'
    outdir        = './'
    forc_conv_thr = 1.0d-7
    etot_conv_thr = 1.0d-7

/
&SYSTEM
    ibrav       = 0
    nat         = 32
    ntyp        = 2
    ecutwfc     = 120
    occupations = 'smearing'
    degauss     = 7.35d-4
    tot_charge  = -0.0
/
&ELECTRONS
    conv_thr    = 1.0d-8
    diagonalization = 'david'
/


&IONS
ion_dynamics = 'bfgs'
/

&CELL
cell_dynamics = 'bfgs'
cell_dofree = 'all'
/
CELL_PARAMETERS angstrom
        7.3236460686         0.0000000000         0.0000000000
        0.0000000000         7.7495899200         0.0000000000
        0.0000000000         0.0000000000         7.3236460686

ATOMIC_SPECIES
W 183.84 W_ONCV_LDA-4.0.upf
O 15.9994 O_ONCV_LDA-3.0.upf

ATOMIC_POSITIONS crystal
0.28508001200000005	0.281860003	0.251000033	 0 0 0
-0.250999989	0.718139997	-0.7149199230000001	 0 0 0
0.21491998799999995	0.218140012	0.750999988	 0 0 0
0.751000033	0.781859972	0.7850800120000001	 0 0 0
0.7149199669999999	0.281860003	0.749000012	 0 0 0
0.25099998799999995	0.718139997	0.7149199879999999	 0 0 0
-0.21491992299999996	0.218140012	-0.7509999890000001	 0 0 0
0.24900001200000005	0.781859972	0.214919967	 0 0 0
0.28856997700000003	0.00832	0.277970032	 0 0 0
-0.27797005399999997	0.991680023	-0.7114299900000001	 0 0 0
0.21143002299999997	0.491679992	0.777970021	 0 0 0
0.7779700319999999	0.508319977	0.7885699770000001	 0 0 0
0.711429968	0.00832	0.722029979	 0 0 0
0.27797002099999996	0.991680023	0.7114300229999999	 0 0 0
-0.21142998999999996	0.491679992	-0.7779700540000001	 0 0 0
0.22202997900000004	0.508319977	0.21142996799999997	 0 0 0
0.487589932	0.291580011	0.6995400039999999	 0 0 0
0.497449958	0.7233199779999999	0.800459963	 0 0 0
-0.9875899650000001	0.20842001999999998	1.199540037	 0 0 0
0.002550002999999975	0.776679993	0.300460012	 0 0 0
0.5124100680000001	0.291580011	0.300460012	 0 0 0
0.5025500420000001	0.7233199779999999	1.199540037	 0 0 0
-0.012410040999999976	0.20842001999999998	0.800459963	 0 0 0
-1.0025500090000001	0.776679993	0.6995400039999999	 0 0 0
0.6995400369999999	0.22332000800000001	2.002550042	 0 0 0
0.300459996	0.7084200359999999	0.487589965	 0 0 0
0.800459963	0.27668002299999994	0.5025500089999999	 0 0 0
0.19954001999999996	0.791579935	1.9875899320000001	 0 0 0
0.300459996	0.22332000800000001	0.997449964	 0 0 0
0.699540037	0.7084200359999999	0.5124100349999999	 0 0 0
0.19954002	0.27668002299999994	0.497449991	 0 0 0
0.800459963	0.791579935	1.012410074	 0 0 0

K_POINTS automatic
6 6 6 0 0 0
