&CONTROL
    calculation   = 'scf'
    restart_mode  = 'from_scratch'
    prefix        = 'Landau_7'
    pseudo_dir    = '/cluster/scratch/mnoe/QE/pps'
    outdir        = './'
/
&SYSTEM
    ibrav       = 0
    nat         = 32
    ntyp        = 2
    ecutwfc     = 120
    occupations = 'smearing'
    degauss     = 7.35d-4
    tot_charge  = -0.2
/
&ELECTRONS
    conv_thr    = 1.0d-8
    diagonalization = 'david'
/

CELL_PARAMETERS angstrom
   7.345804234   0.000000000   0.000000000
   0.000000000   7.713947782   0.000000000
   0.000000000   0.000000000   7.352801583

ATOMIC_SPECIES
W 183.84 W_ONCV_LDA-4.0.upf
O 15.9994 O_ONCV_LDA-3.0.upf

ATOMIC_POSITIONS crystal
W 0.24353001	0.2804681446411668	0.00612	
W 0.7564699666013609	0.7195318553588331	0.993880002	
W 0.25646999	0.2195318708212481	0.50612003	
W 0.7435300186013608	0.7804681279760303	0.493880002	
W 0.7564699666013609	0.2804681446411668	0.493880002	
W 0.24353001	0.7195318553588331	0.50612003	
W 0.7435300186013608	0.2195318708212481	0.993880002	
W 0.25646999	0.7804681279760303	0.00612	
O 0.238059992	0.007940816505491005	0.0019	
O 0.7619400176013609	0.9920591967837951	0.99809997	
O 0.261940008	0.4920591801186585	0.50190003	
O 0.7380599676013608	0.5079408032162049	0.498100002	
O 0.7619400176013609	0.007940816505491005	0.498100002	
O 0.238059992	0.9920591967837951	0.50190003	
O 0.7380599676013608	0.4920591801186585	0.99809997	
O 0.261940008	0.5079408032162049	0.0019	
O 0.501770034	0.237749996	0.45294337154566394	
O 0.498229966	0.7622500419362243	0.5470566107140293	
O 0.998229998	0.262250004	0.952943404545664	
O 0.00177002	0.7377500029362243	0.04705663150671747	
O 0.498229966	0.237749996	0.04705663150671747	
O 0.501770034	0.7622500419362243	0.952943404545664	
O 0.00177002	0.262250004	0.5470566107140293	
O 0.998229998	0.7377500029362243	0.45294337154566394	
O 0.7029433966846099	0.247320003	0.7473199866013609	
O 0.29705662105569686	0.7526800339362243	0.252680006	
O 0.7970566181126685	0.252679997	0.247319929	
O 0.202943387545664	0.7473200099362243	0.7526799986013608	
O 0.29705662105569686	0.247320003	0.7526799986013608	
O 0.7029433966846099	0.7526800339362243	0.247319929	
O 0.202943387545664	0.252679997	0.252680006	
O 0.7970566181126685	0.7473200099362243	0.7473199866013609	

K_POINTS automatic
6 6 6 0 0 0
