
&CONTROL
    calculation   = 'vc-relax'
    restart_mode  = 'from_scratch'
    prefix        = 'Landau_13'
    pseudo_dir    = '/cluster/scratch/mnoe/QE/pps'
    outdir        = './'
    forc_conv_thr = 1.0d-7
    etot_conv_thr = 1.0d-7

/
&SYSTEM
    ibrav       = 0
    nat         = 32
    ntyp        = 2
    ecutwfc     = 120
    occupations = 'smearing'
    degauss     = 7.35d-4
    tot_charge  = -0.0
/
&ELECTRONS
    conv_thr    = 1.0d-8
    diagonalization = 'david'
/


&IONS
ion_dynamics = 'bfgs'
/

&CELL
cell_dynamics = 'bfgs'
cell_dofree = 'all'
/
CELL_PARAMETERS angstrom
        7.3236460686         0.0000000000         0.0000000000
        0.0000000000         7.7495899200         0.0000000000
        0.0000000000         0.0000000000         7.3236460686

ATOMIC_SPECIES
W 183.84 W_ONCV_LDA-4.0.upf
O 15.9994 O_ONCV_LDA-3.0.upf

ATOMIC_POSITIONS crystal
W 0.255640005	0.28048480116320357	-0.994069979	 0 0 0
W 0.7440699715834764	0.7195151988367964	-0.994359946	 0 0 0
W 0.244359995	0.21951521430032914	-0.49406999500000004	 0 0 0
W 0.7559299815834764	0.780484815532718	-0.494359995	 0 0 0
W 0.7443599385834764	0.28048480116320357	-0.505930005	 0 0 0
W 0.255930005	0.7195151988367964	-0.5056400050000001	 0 0 0
W 0.7556400135834764	0.21951521430032914	-1.005929989	 0 0 0
W 0.244069995	0.780484815532718	-1.005640021	 0 0 0
O 0.262009975	0.00794988692191538	-0.988050014	 0 0 0
O 0.7380500065834764	0.9920501163438974	-0.987990041	 0 0 0
O 0.237990009	0.49205013071341186	-0.48804999800000004	 0 0 0
O 0.7619500105834763	0.5079498836561026	-0.487990009	 0 0 0
O 0.7379900335834764	0.00794988692191538	-0.5119500180000001	 0 0 0
O 0.261950018	0.9920501163438974	-0.512009975	 0 0 0
O 0.7620099835834764	0.49205013071341186	-1.0119500179999998	 0 0 0
O 0.238049998	0.5079498836561026	-1.012009991	 0 0 0
O 0.497499951	0.264350007	-0.5471783816437301	 0 0 0
O 0.501639947	0.7398400599529908	-0.4528215870596899	 0 0 0
O 0.002499998	0.235650008	-1.0471783816437301	 0 0 0
O 0.998360021	0.7601599539529909	-0.9528215993351861	 0 0 0
O 0.502499984	0.264350007	-0.9528215993351861	 0 0 0
O 0.498360021	0.7398400599529908	-1.0471783816437301	 0 0 0
O 0.997500016	0.235650008	-0.4528215870596899	 0 0 0
O 0.001639992	0.7601599539529909	-0.5471783816437301	 0 0 0
O 0.7028215784762135	0.239840007	-0.25163999941652354	 0 0 0
O 0.2971783742272066	0.7356500299529909	-0.752499984	 0 0 0
O 0.7971784043568337	0.260160008	-0.751639947	 0 0 0
O 0.20282160235626978	0.7643499839529908	-0.25250000541652357	 0 0 0
O 0.2971783742272066	0.239840007	-1.2483600284165235	 0 0 0
O 0.7028215784762135	0.7356500299529909	-0.747499951	 0 0 0
O 0.20282160235626978	0.260160008	-0.748360021	 0 0 0
O 0.7971784043568337	0.7643499839529908	-1.2475000234165237	 0 0 0

K_POINTS automatic
6 6 6 0 0 0
