&CONTROL
    calculation   = 'scf'
    restart_mode  = 'from_scratch'
    prefix        = 'Landau_6'
    pseudo_dir    = '/cluster/scratch/mnoe/QE/pps'
    outdir        = './'
/
&SYSTEM
    ibrav       = 0
    nat         = 32
    ntyp        = 2
    ecutwfc     = 120
    occupations = 'smearing'
    degauss     = 7.35d-4
    tot_charge  = -0.6
/
&ELECTRONS
    conv_thr    = 1.0d-8
    diagonalization = 'david'
/

CELL_PARAMETERS angstrom
   7.399223882   0.000000000   0.000000000
   0.000000000   7.688948640   0.000000000
   0.000000000   0.000000000   7.397889183

ATOMIC_SPECIES
W 183.84 W_ONCV_LDA-4.0.upf
O 15.9994 O_ONCV_LDA-3.0.upf

ATOMIC_POSITIONS crystal
W 0.24547408488093028	0.2772099851702226	-0.0020169896691065127	
W 0.7482452766149713	0.7227900148297773	-0.004633910800525075	
W 0.25452591511906975	0.22279003137464554	0.49798300802404694	
W 0.7517546780835939	0.7772100020611377	0.4953660836720309	
W 0.7545258873303758	0.2772099851702226	0.5020169919759531	
W 0.2517547033257688	0.7227900148297773	0.5046339163279692	
W 0.7454740673681893	0.22279003137464554	0.0020169913917516776	
W 0.2482452966742312	0.7772100020611377	0.00463391252317024	
O 0.24646767640060083	0.007053197240197443	-0.005728312998447095	
O 0.7515801612306241	-0.0070532066824301855	-0.006541701632872244	
O 0.25353231646914615	0.49294681020848485	0.49427167912232367	
O 0.7484197880753127	0.5070532066824301	0.49345829243523653	
O 0.7535322939532444	0.007053197240197443	0.5057283212821234	
O 0.24841980444960995	-0.0070532066824301855	0.5065417079692106	
O 0.7464676553526924	0.49294681020848485	0.0057283124741637865	
O 0.251580188420137	0.5070532066824301	0.006541701108588935	
O 0.5017576953357342	0.2460045122093945	0.4609102125188397	
O 0.5009997302630965	0.751248855127183	0.5390898054618117	
O -0.001757686123327396	0.253995485543677	0.9609102455188396	
O -0.0009997223239491902	0.7487511766777317	0.03908976022484996	
O 0.49824230466426583	0.2460045122093945	0.03908976022484996	
O 0.4990002697369035	0.751248855127183	0.9609102455188396	
O 0.0017576915908533693	0.253995485543677	0.5390898054618117	
O 0.0009997277914751634	0.7487511766777317	0.4609102125188397	
O 0.7109102192560799	0.25572097408064226	0.7503350756347418	
O 0.28908976276326864	0.7568654290613254	0.25148402175358825	
O 0.7890898301797034	0.24427902052672937	0.2503350992890872	
O 0.2109102285188397	0.7431346026387328	0.7514840029675879	
O 0.28908976276326864	0.25572097408064226	0.7496648898490802	
O 0.7109102192560799	0.7568654290613254	0.24851598311475678	
O 0.2109102285188397	0.24427902052672937	0.24966490557925786	
O 0.7890898301797034	0.7431346026387328	0.7485159625162341	

K_POINTS automatic
6 6 6 0 0 0
