
&CONTROL
    calculation   = 'vc-relax'
    restart_mode  = 'from_scratch'
    prefix        = 'Landau_31'
    pseudo_dir    = '/cluster/scratch/mnoe/QE/pps'
    outdir        = './'
    forc_conv_thr = 1.0d-7
    etot_conv_thr = 1.0d-7

/
&SYSTEM
    ibrav       = 0
    nat         = 32
    ntyp        = 2
    ecutwfc     = 120
    occupations = 'smearing'
    degauss     = 7.35d-4
    tot_charge  = -0.0
/
&ELECTRONS
    conv_thr    = 1.0d-8
    diagonalization = 'david'
/


&IONS
ion_dynamics = 'bfgs'
/

&CELL
cell_dynamics = 'bfgs'
cell_dofree = 'all'
/
CELL_PARAMETERS angstrom
        7.3236460686         0.0000000000         0.0000000000
        0.0000000000         7.7495899200         0.0000000000
        0.0000000000         0.0000000000         7.3236460686

ATOMIC_SPECIES
W 183.84 W_ONCV_LDA-4.0.upf
O 15.9994 O_ONCV_LDA-3.0.upf

ATOMIC_POSITIONS crystal
W 0.23566	0.2757190576268628	0.01354	 0 0 0
W 0.7643399513568516	0.7242809423731372	0.986459981	 0 0 0
W 0.264339984	0.2242809594133339	0.513540019	 0 0 0
W 0.7356599833568516	0.7757190898729629	0.486460013	 0 0 0
W 0.7643399513568516	0.2757190576268628	0.486460013	 0 0 0
W 0.23566	0.7242809423731372	0.513540019	 0 0 0
W 0.7356599833568516	0.2242809594133339	0.986459981	 0 0 0
W 0.264339984	0.7757190898729629	0.01354	 0 0 0
O 0.22355	0.006647024361784138	0.00421	 0 0 0
O 0.7764499183568516	0.9933529557940836	0.995789995	 0 0 0
O 0.276449983	0.4933529880401836	0.504210005	 0 0 0
O 0.7235500163568516	0.5066470442059164	0.495789995	 0 0 0
O 0.7764499183568516	0.006647024361784138	0.495789995	 0 0 0
O 0.22355	0.9933529557940836	0.504210005	 0 0 0
O 0.7235500163568516	0.4933529880401836	0.995789995	 0 0 0
O 0.276449983	0.5066470442059164	0.00421	 0 0 0
O 0.503920029	0.222870006	0.46455582371325826	 0 0 0
O 0.496079971	0.7771300096029518	0.5354442106132352	 0 0 0
O 0.996080003	0.277130009	0.9645558567132583	 0 0 0
O 0.003920078	0.7228700216029518	0.03544413516123194	 0 0 0
O 0.496079971	0.222870006	0.03544413516123194	 0 0 0
O 0.503920029	0.7771300096029518	0.9645558567132583	 0 0 0
O 0.003920078	0.277130009	0.5354442106132352	 0 0 0
O 0.996080003	0.7228700216029518	0.46455582371325826	 0 0 0
O 0.7145558220299132	0.244080001	0.7440599393568516	 0 0 0
O 0.2854441436435932	0.7559200456029517	0.255940012	 0 0 0
O 0.7854442432563836	0.255919999	0.244060037	 0 0 0
O 0.2145558397132583	0.7440800466029517	0.7559399953568516	 0 0 0
O 0.2854441436435932	0.244080001	0.7559399953568516	 0 0 0
O 0.7145558220299132	0.7559200456029517	0.244060037	 0 0 0
O 0.2145558397132583	0.255919999	0.255940012	 0 0 0
O 0.7854442432563836	0.7440800466029517	0.7440599393568516	 0 0 0

K_POINTS automatic
6 6 6 0 0 0
