
&CONTROL
    calculation   = 'vc-relax'
    restart_mode  = 'from_scratch'
    prefix        = 'Landau_12'
    pseudo_dir    = '/cluster/scratch/mnoe/QE/pps'
    outdir        = './'
    forc_conv_thr = 1.0d-7
    etot_conv_thr = 1.0d-7

/
&SYSTEM
    ibrav       = 0
    nat         = 32
    ntyp        = 2
    ecutwfc     = 120
    occupations = 'smearing'
    degauss     = 7.35d-4
    tot_charge  = -0.0
/
&ELECTRONS
    conv_thr    = 1.0d-8
    diagonalization = 'david'
/


&IONS
ion_dynamics = 'bfgs'
/

&CELL
cell_dynamics = 'bfgs'
cell_dofree = 'all'
/
CELL_PARAMETERS angstrom
        7.3236460686         0.0000000000         0.0000000000
        0.0000000000         7.7495899200         0.0000000000
        0.0000000000         0.0000000000         7.3236460686

ATOMIC_SPECIES
W 183.84 W_ONCV_LDA-4.0.upf
O 15.9994 O_ONCV_LDA-3.0.upf

ATOMIC_POSITIONS crystal
W 0.23279241807618034	0.2771532388438114	0.004014336569234869	 0 0 0
W 0.7549923943935696	0.7228467611561886	-0.01694965083076516	 0 0 0
W 0.26720758192381966	0.22284677771990952	0.5040143366259706	 0 0 0
W 0.7450075636082464	0.7771532563191614	0.48305032342597054	 0 0 0
W 0.7672075432082464	0.2771532388438114	0.49598566337402944	 0 0 0
W 0.2450075819238197	0.7228467611561886	0.5169496765740295	 0 0 0
W 0.7327924147935696	0.22284677771990952	-0.0040143227692349	 0 0 0
W 0.25499241807618034	0.7771532563191614	0.01694966463076513	 0 0 0
O 0.2276236412144503	0.007037737857989041	-0.00867396450689219	 0 0 0
O 0.7685796023949147	-0.0070377476961294115	-0.015189968706892166	 0 0 0
O 0.2723763376486249	0.4929622697792207	0.491326008356183	 0 0 0
O 0.7314203451187877	0.5070377476961294	0.484810019756183	 0 0 0
O 0.7723763019187877	0.007037737857989041	0.5086739774374776	 0 0 0
O 0.2314203316486249	-0.0070377476961294115	0.5151899660374775	 0 0 0
O 0.7276236455949148	0.4929622697792207	0.008673960306892216	 0 0 0
O 0.26857964721445027	0.5070377476961294	0.015189964506892192	 0 0 0
O 0.5057174609164014	0.22632302840182458	0.4610489684521701	 0 0 0
O 0.4996454513164014	0.7683350499016959	0.5389510501506218	 0 0 0
O -0.005717457992155564	0.2736769535981754	0.9610490014521701	 0 0 0
O 0.00035454140784444386	0.731665024335764	0.03895100376364269	 0 0 0
O 0.4942825390835986	0.22632302840182458	0.03895100376364269	 0 0 0
O 0.5003545486835985	0.7683350499016959	0.9610490014521701	 0 0 0
O 0.0057174309164014165	0.2736769535981754	0.5389510501506218	 0 0 0
O -0.0003545684835985913	0.731665024335764	0.4610489684521701	 0 0 0
O 0.7110489748689137	0.2576556187834055	0.7471669928530622	 0 0 0
O 0.2889510065282943	0.7668236681713902	0.25637098953567294	 0 0 0
O 0.7889510751701574	0.24234437072848103	0.2471670453356729	 0 0 0
O 0.21104898445217013	0.7331764063164659	0.7563709760530622	 0 0 0
O 0.2889510065282943	0.2576556187834055	0.7528329861249807	 0 0 0
O 0.7110489748689137	0.7668236681713902	0.24362904946432712	 0 0 0
O 0.21104898445217013	0.24234437072848103	0.2528329936643271	 0 0 0
O 0.7889510751701574	0.7331764063164659	0.7436290029249807	 0 0 0

K_POINTS automatic
6 6 6 0 0 0
