&CONTROL
    calculation   = 'scf'
    restart_mode  = 'from_scratch'
    prefix        = 'Landau_27'
    pseudo_dir    = '/cluster/scratch/mnoe/QE/pps'
    outdir        = './'
/
&SYSTEM
    ibrav       = 0
    nat         = 32
    ntyp        = 2
    ecutwfc     = 120
    occupations = 'smearing'
    degauss     = 7.35d-4
    tot_charge  = -0.52
/
&ELECTRONS
    conv_thr    = 1.0d-8
    diagonalization = 'david'
/

CELL_PARAMETERS angstrom
   7.317981667   0.000000000   0.000000000
   0.000000000   7.681603136   0.000000000
   0.000000000   0.000000000   7.345489593

ATOMIC_SPECIES
W 183.84 W_ONCV_LDA-4.0.upf
O 15.9994 O_ONCV_LDA-3.0.upf

ATOMIC_POSITIONS crystal
W         0.237509991         0.281860003         0.011790000
W         0.762490025         0.718139997         0.988209993
W         0.262490009         0.218140012         0.511789974
W         0.737509975         0.781859972         0.488209993
W         0.762490025         0.281860003         0.488209993
W         0.237509991         0.718139997         0.511789974
W         0.737509975         0.218140012         0.988209993
W         0.262490009         0.781859972         0.011790000
O         0.226970003         0.008320000         0.003670000
O         0.773030013         0.991680023         0.996330033
O         0.273029981         0.491679992         0.503669967
O         0.726969987         0.508319977         0.496330000
O         0.773030013         0.008320000         0.496330000
O         0.226970003         0.991680023         0.503669967
O         0.726969987         0.491679992         0.996330033
O         0.273029981         0.508319977         0.003670000
O         0.503409975         0.226370014         0.449540004
O         0.496590025         0.773630017         0.550459963
O         0.996590025         0.273629986         0.949540037
O         0.003409982         0.726369952         0.050460012
O         0.496590025         0.226370014         0.050460012
O         0.503409975         0.773630017         0.949540037
O         0.003409982         0.273629986         0.550459963
O         0.996590025         0.726369952         0.449540004
O         0.699540037         0.244840003         0.744820023
O         0.300459996         0.755159967         0.255179993
O         0.800459963         0.255159997         0.244820007
O         0.199540020         0.744840003         0.755179977
O         0.300459996         0.244840003         0.755179977
O         0.699540037         0.755159967         0.244820007
O         0.199540020         0.255159997         0.255179993
O         0.800459963         0.744840003         0.744820023

K_POINTS automatic
6 6 6 0 0 0
