
&CONTROL
    calculation   = 'vc-relax'
    restart_mode  = 'from_scratch'
    prefix        = 'Landau_34'
    pseudo_dir    = '/cluster/scratch/mnoe/QE/pps'
    outdir        = './'
    forc_conv_thr = 1.0d-7
    etot_conv_thr = 1.0d-7

/
&SYSTEM
    ibrav       = 0
    nat         = 32
    ntyp        = 2
    ecutwfc     = 120
    occupations = 'smearing'
    degauss     = 7.35d-4
    tot_charge  = -0.0
/
&ELECTRONS
    conv_thr    = 1.0d-8
    diagonalization = 'david'
/


&IONS
ion_dynamics = 'bfgs'
/

&CELL
cell_dynamics = 'bfgs'
cell_dofree = 'all'
/
CELL_PARAMETERS angstrom
        7.3236460686         0.0000000000         0.0000000000
        0.0000000000         7.7495899200         0.0000000000
        0.0000000000         0.0000000000         7.3236460686

ATOMIC_SPECIES
W 183.84 W_ONCV_LDA-4.0.upf
O 15.9994 O_ONCV_LDA-3.0.upf

ATOMIC_POSITIONS crystal
W 0.25	0.2771205181204585	0.0	 0 0 0
W 0.7499999748065324	0.7228794818795415	0.0	 0 0 0
W 0.25	0.22287949845413316	0.5	 0 0 0
W 0.7499999748065324	0.7771205359328021	0.5	 0 0 0
W 0.7499999748065324	0.2771205181204585	0.5	 0 0 0
W 0.25	0.7228794818795415	0.5	 0 0 0
W 0.7499999748065324	0.22287949845413316	0.0	 0 0 0
W 0.25	0.7771205359328021	0.0	 0 0 0
O 0.25	0.007028823762567573	0.0	 0 0 0
O 0.7499999748065324	0.9929711661710062	0.0	 0 0 0
O 0.25	0.4929711839833497	0.5	 0 0 0
O 0.7499999748065324	0.5070288338289938	0.5	 0 0 0
O 0.7499999748065324	0.007028823762567573	0.5	 0 0 0
O 0.25	0.9929711661710062	0.5	 0 0 0
O 0.7499999748065324	0.4929711839833497	0.0	 0 0 0
O 0.25	0.5070288338289938	0.0	 0 0 0
O 0.5	0.25	0.4611289770588096	 0 0 0
O 0.5	0.750000008618876	0.5388710419027173	 0 0 0
O 0.0	0.25	0.9611290100588097	 0 0 0
O 0.0	0.750000008618876	0.03887099485262201	 0 0 0
O 0.5	0.25	0.03887099485262201	 0 0 0
O 0.5	0.750000008618876	0.9611290100588097	 0 0 0
O 0.0	0.25	0.5388710419027173	 0 0 0
O 0.0	0.750000008618876	0.4611289770588096	 0 0 0
O 0.7111289832907504	0.25	0.7499999748065324	 0 0 0
O 0.2888709977477227	0.750000008618876	0.25	 0 0 0
O 0.7888710670961848	0.25	0.25	 0 0 0
O 0.21112899305880967	0.750000008618876	0.7499999748065324	 0 0 0
O 0.2888709977477227	0.25	0.7499999748065324	 0 0 0
O 0.7111289832907504	0.750000008618876	0.25	 0 0 0
O 0.21112899305880967	0.25	0.25	 0 0 0
O 0.7888710670961848	0.750000008618876	0.7499999748065324	 0 0 0

K_POINTS automatic
6 6 6 0 0 0
