&CONTROL
    calculation   = 'scf'
    restart_mode  = 'from_scratch'
    prefix        = 'Landau_7'
    pseudo_dir    = '/cluster/scratch/mnoe/QE/pps'
    outdir        = './'
    forc_conv_thr = 1.0d-7
    etot_conv_thr = 1.0d-7

/
&SYSTEM
    ibrav       = 0
    nat         = 32
    ntyp        = 2
    ecutwfc     = 120
    occupations = 'smearing'
    degauss     = 7.35d-4
    tot_charge  = -0.36
/
&ELECTRONS
    conv_thr    = 1.0d-8
    diagonalization = 'david'
/

CELL_PARAMETERS angstrom
   7.323146568   0.000000000   0.000000000
   0.000000000   7.744782314   0.000000000
   0.000000000   0.000000000   7.324945344

ATOMIC_SPECIES
W 183.84 W_ONCV_LDA-4.0.upf
O 15.9994 O_ONCV_LDA-3.0.upf

ATOMIC_POSITIONS crystal
W         0.246759999         0.281860003         0.003060000
W         0.753239968         0.718139997         0.996940001
W         0.253239984         0.218140012         0.503059999
W         0.746760032         0.781859972         0.496940001
W         0.753239968         0.281860003         0.496940001
W         0.246759999         0.718139997         0.503059999
W         0.746760032         0.218140012         0.996940001
W         0.253239984         0.781859972         0.003060000
O         0.244030004         0.008320000         0.000950000
O         0.755969980         0.991680023         0.999050017
O         0.255969996         0.491679992         0.500949983
O         0.744030020         0.508319977         0.499049985
O         0.755969980         0.008320000         0.499049985
O         0.244030004         0.991680023         0.500949983
O         0.744030020         0.491679992         0.999050017
O         0.255969996         0.508319977         0.000950000
O         0.500879987         0.243870006         0.449540004
O         0.499120013         0.756129963         0.550459963
O         0.999120013         0.256129978         0.949540037
O         0.000880003         0.743870006         0.050460012
O         0.499120013         0.243870006         0.050460012
O         0.500879987         0.756129963         0.949540037
O         0.000880003         0.256129978         0.550459963
O         0.999120013         0.743870006         0.449540004
O         0.699540037         0.248659994         0.748659997
O         0.300459996         0.751340037         0.251339970
O         0.800459963         0.251340006         0.248660095
O         0.199540020         0.748659994         0.751340003
O         0.300459996         0.248659994         0.751340003
O         0.699540037         0.751340037         0.248660095
O         0.199540020         0.251340006         0.251339970
O         0.800459963         0.748659994         0.748659997

K_POINTS automatic
6 6 6 0 0 0
