&CONTROL
    calculation   = 'scf'
    restart_mode  = 'from_scratch'
    prefix        = 'Landau_11'
    pseudo_dir    = '/cluster/scratch/mnoe/QE/pps'
    outdir        = './'
/
&SYSTEM
    ibrav       = 0
    nat         = 32
    ntyp        = 2
    ecutwfc     = 120
    occupations = 'smearing'
    degauss     = 7.35d-4
    tot_charge  = -0.2
/
&ELECTRONS
    conv_thr    = 1.0d-8
    diagonalization = 'david'
/

CELL_PARAMETERS angstrom
   7.451251287   0.000000220  -0.000000064
   0.000000238   7.652994624  -0.000000332
  -0.000000064  -0.000000305   7.451251601

ATOMIC_SPECIES
W 183.84 W_ONCV_LDA-4.0.upf
O 15.9994 O_ONCV_LDA-3.0.upf

ATOMIC_POSITIONS crystal
W 0.25	0.2731043943449916	0.0	
W 0.749999953458203	0.7268956056550084	0.0	
W 0.25	0.22689562356387055	0.5	
W 0.749999953458203	0.7731044535197233	0.5	
W 0.749999953458203	0.2731043943449916	0.5	
W 0.25	0.7268956056550084	0.5	
W 0.749999953458203	0.22689562356387055	0.0	
W 0.25	0.7731044535197233	0.0	
O 0.25	0.005934712542199705	0.0	
O 0.749999953458203	0.9940652493716917	0.0	
O 0.25	0.49406530854642344	0.5	
O 0.749999953458203	0.5059347506283083	0.5	
O 0.749999953458203	0.005934712542199705	0.5	
O 0.25	0.9940652493716917	0.5	
O 0.749999953458203	0.49406530854642344	0.0	
O 0.25	0.5059347506283083	0.0	
O 0.5	0.25	0.4709491898915664	
O 0.5	0.7500000286329347	0.5290508731008897	
O 0.0	0.25	0.9709492228915665	
O 0.0	0.7500000286329347	0.02905074466028878	
O 0.5	0.25	0.02905074466028878	
O 0.5	0.7500000286329347	0.9709492228915665	
O 0.0	0.25	0.5290508731008897	
O 0.0	0.7500000286329347	0.4709491898915664	
O 0.7209491734409073	0.25	0.749999953458203	
O 0.27905076356663644	0.7500000286329347	0.25	
O 0.7790509196426867	0.25	0.25	
O 0.22094920589156647	0.7500000286329347	0.749999953458203	
O 0.27905076356663644	0.25	0.749999953458203	
O 0.7209491734409073	0.7500000286329347	0.25	
O 0.22094920589156647	0.25	0.25	
O 0.7790509196426867	0.7500000286329347	0.749999953458203	

K_POINTS automatic
6 6 6 0 0 0
