
&CONTROL
    calculation   = 'vc-relax'
    restart_mode  = 'from_scratch'
    prefix        = 'Landau_11'
    pseudo_dir    = '/cluster/scratch/mnoe/QE/pps'
    outdir        = './'
    forc_conv_thr = 1.0d-7
    etot_conv_thr = 1.0d-7

/
&SYSTEM
    ibrav       = 0
    nat         = 32
    ntyp        = 2
    ecutwfc     = 120
    occupations = 'smearing'
    degauss     = 7.35d-4
    tot_charge  = -0.0
/
&ELECTRONS
    conv_thr    = 1.0d-8
    diagonalization = 'david'
/


&IONS
ion_dynamics = 'bfgs'
/

&CELL
cell_dynamics = 'bfgs'
cell_dofree = 'all'
/
CELL_PARAMETERS angstrom
        7.3236460686         0.0000000000         0.0000000000
        0.0000000000         7.7495899200         0.0000000000
        0.0000000000         0.0000000000         7.3236460686

ATOMIC_SPECIES
W 183.84 W_ONCV_LDA-4.0.upf
O 15.9994 O_ONCV_LDA-3.0.upf

ATOMIC_POSITIONS crystal
W 0.25	0.28032664024485426	0.0	 0 0 0
W 0.7499999918491722	0.7196733597551458	0.0	 0 0 0
W 0.25	0.21967337526457248	0.5	 0 0 0
W 0.7499999918491722	0.780326625037083	0.5	 0 0 0
W 0.7499999918491722	0.28032664024485426	0.5	 0 0 0
W 0.25	0.7196733597551458	0.5	 0 0 0
W 0.7499999918491722	0.21967337526457248	0.0	 0 0 0
W 0.25	0.780326625037083	0.0	 0 0 0
O 0.25	0.007902266511418921	0.0	 0 0 0
O 0.7499999918491722	0.9920977457906197	0.0	 0 0 0
O 0.25	0.49209773058284845	0.5	 0 0 0
O 0.7499999918491722	0.5079022542093803	0.5	 0 0 0
O 0.7499999918491722	0.007902266511418921	0.5	 0 0 0
O 0.25	0.9920977457906197	0.5	 0 0 0
O 0.7499999918491722	0.49209773058284845	0.0	 0 0 0
O 0.25	0.5079022542093803	0.0	 0 0 0
O 0.5	0.25	0.4532893776366737	 0 0 0
O 0.5	0.749999992641401	0.5467106061744085	 0 0 0
O 0.0	0.25	0.9532894106366737	 0 0 0
O 0.0	0.749999992641401	0.04671062409937771	 0 0 0
O 0.5	0.25	0.04671062409937771	 0 0 0
O 0.5	0.749999992641401	0.9532894106366737	 0 0 0
O 0.0	0.25	0.5467106061744085	 0 0 0
O 0.0	0.749999992641401	0.4532893776366737	 0 0 0
O 0.7032894019764192	0.25	0.7499999918491722	 0 0 0
O 0.2967106142124985	0.749999992641401	0.25	 0 0 0
O 0.7967106143252363	0.25	0.25	 0 0 0
O 0.20328939363667373	0.749999992641401	0.7499999918491722	 0 0 0
O 0.2967106142124985	0.25	0.7499999918491722	 0 0 0
O 0.7032894019764192	0.749999992641401	0.25	 0 0 0
O 0.20328939363667373	0.25	0.25	 0 0 0
O 0.7967106143252363	0.749999992641401	0.7499999918491722	 0 0 0

K_POINTS automatic
6 6 6 0 0 0
