&CONTROL
    calculation   = 'scf'
    restart_mode  = 'from_scratch'
    prefix        = 'Landau_2'
    pseudo_dir    = '/cluster/scratch/mnoe/QE/pps'
    outdir        = './'
/
&SYSTEM
    ibrav       = 0
    nat         = 32
    ntyp        = 2
    ecutwfc     = 120
    occupations = 'smearing'
    degauss     = 7.35d-4
    tot_charge  = -0.6
/
&ELECTRONS
    conv_thr    = 1.0d-8
    diagonalization = 'david'
/

CELL_PARAMETERS angstrom
   7.323376354   0.000000000   0.000000000
   0.000000000   7.747868272   0.000000000
   0.000000000   0.000000000   7.323967726

ATOMIC_SPECIES
W 183.84 W_ONCV_LDA-4.0.upf
O 15.9994 O_ONCV_LDA-3.0.upf

ATOMIC_POSITIONS crystal
W 0.248150008         0.281860003         0.001750000
W 0.751850024         0.718139997         0.998249987
W 0.251850008         0.218140012         0.501749980
W 0.748149976         0.781859972         0.498250020
W 0.751850024         0.281860003         0.498250020
W 0.248150008         0.718139997         0.501749980
W 0.748149976         0.218140012         0.998249987
W 0.251850008         0.781859972         0.001750000
O 0.246590008         0.008320000         0.000540000
O 0.753409975         0.991680023         0.999459962
O 0.253409975         0.491679992         0.500540006
O 0.746590025         0.508319977         0.499460027
O 0.753409975         0.008320000         0.499460027
O 0.246590008         0.991680023         0.500540006
O 0.746590025         0.491679992         0.999459962
O 0.253409975         0.508319977         0.000540000
O 0.500509989         0.246500008         0.449540004
O 0.499490011         0.753500008         0.550459963
O 0.999490044         0.253499992         0.949540037
O 0.000509977         0.746500023         0.050460012
O 0.499490011         0.246500008         0.050460012
O 0.500509989         0.753500008         0.949540037
O 0.000509977         0.253499992         0.550459963
O 0.999490044         0.746500023         0.449540004
O 0.699540037         0.249239998         0.749230052
O 0.300459996         0.750760033         0.250769981
O 0.800459963         0.250760017         0.249230019
O 0.199540020         0.749239998         0.750769948
O 0.300459996         0.249239998         0.750769948
O 0.699540037         0.750760033         0.249230019
O 0.199540020         0.250760017         0.250769981
O 0.800459963         0.749239998         0.749230052

K_POINTS automatic
6 6 6 0 0 0
