
&CONTROL
    calculation   = 'vc-relax'
    restart_mode  = 'from_scratch'
    prefix        = 'Landau_33'
    pseudo_dir    = '/cluster/scratch/mnoe/QE/pps'
    outdir        = './'
    forc_conv_thr = 1.0d-7
    etot_conv_thr = 1.0d-7

/
&SYSTEM
    ibrav       = 0
    nat         = 32
    ntyp        = 2
    ecutwfc     = 120
    occupations = 'smearing'
    degauss     = 7.35d-4
    tot_charge  = -0.0
/
&ELECTRONS
    conv_thr    = 1.0d-8
    diagonalization = 'david'
/


&IONS
ion_dynamics = 'bfgs'
/

&CELL
cell_dynamics = 'bfgs'
cell_dofree = 'all'
/
CELL_PARAMETERS angstrom
        7.3236460686         0.0000000000         0.0000000000
        0.0000000000         7.3236460686         0.0000000000
        0.0000000000         0.0000000000         7.7495899200

ATOMIC_SPECIES
W 183.84 W_ONCV_LDA-4.0.upf
O 15.9994 O_ONCV_LDA-3.0.upf

ATOMIC_POSITIONS crystal
W 0.235690000         0.234950007         0.218119991 0 0 0
W 0.764310000         0.765049993         0.218119991 0 0 0
W 0.234950007         0.764310000         0.781880024 0 0 0
W 0.765049993         0.235690000         0.781880024 0 0 0
W 0.264310000         0.734949975         0.281880024 0 0 0
W 0.735689968         0.265049993         0.281880024 0 0 0
W 0.265049993         0.264310000         0.718119976 0 0 0
W 0.734949975         0.735689968         0.718119976 0 0 0
O 0.219510011         0.219659992         0.491670026 0 0 0
O 0.780489957         0.780339992         0.491670026 0 0 0
O 0.219659992         0.780489957         0.508329974 0 0 0
O 0.780339992         0.219510011         0.508329974 0 0 0
O 0.280489989         0.719659976         0.008329987 0 0 0
O 0.719510011         0.280340024         0.008329987 0 0 0
O 0.280340024         0.280489989         0.991670026 0 0 0
O 0.719659976         0.719510011         0.991670026 0 0 0
O 0.199410008         0.495840014         0.275780001 0 0 0
O 0.800589976         0.504159986         0.275780001 0 0 0
O 0.495840014         0.800589976         0.724220029 0 0 0
O 0.504159986         0.199410008         0.724220029 0 0 0
O 0.300589976         0.995839981         0.224220014 0 0 0
O 0.699409992         0.004159987         0.224220014 0 0 0
O 0.004159987         0.300589976         0.775779971 0 0 0
O 0.995839981         0.699409992         0.775779971 0 0 0
O 0.993639993         0.199410008         0.213579992 0 0 0
O 0.006359994         0.800589976         0.213579992 0 0 0
O 0.199410008         0.006359994         0.786419977 0 0 0
O 0.800589976         0.993639993         0.786419977 0 0 0
O 0.506360007         0.699409992         0.286419977 0 0 0
O 0.493639960         0.300589976         0.286419977 0 0 0
O 0.300589976         0.506360007         0.713580023 0 0 0
O 0.699409992         0.493639960         0.713580023 0 0 0

K_POINTS automatic
6 6 6 0 0 0
