
&CONTROL
    calculation   = 'vc-relax'
    restart_mode  = 'from_scratch'
    prefix        = 'Landau_6'
    pseudo_dir    = '/cluster/scratch/mnoe/QE/pps'
    outdir        = './'
    forc_conv_thr = 1.0d-7
    etot_conv_thr = 1.0d-7

/
&SYSTEM
    ibrav       = 0
    nat         = 32
    ntyp        = 2
    ecutwfc     = 120
    occupations = 'smearing'
    degauss     = 7.35d-4
    tot_charge  = -0.0
/
&ELECTRONS
    conv_thr    = 1.0d-8
    diagonalization = 'david'
/


&IONS
ion_dynamics = 'bfgs'
/

&CELL
cell_dynamics = 'bfgs'
cell_dofree = 'all'
/
CELL_PARAMETERS angstrom
        7.3236460686         0.0000000000         0.0000000000
        0.0000000000         7.7495899200         0.0000000000
        0.0000000000         0.0000000000         7.3236460686

ATOMIC_SPECIES
W 183.84 W_ONCV_LDA-4.0.upf
O 15.9994 O_ONCV_LDA-3.0.upf

ATOMIC_POSITIONS crystal
W 0.2392207443965311	0.28059300872387144	-0.0003086582110017177	 0 0 0
W 0.7503086583685852	0.7194069912761285	-0.01077924061979876	 0 0 0
W 0.26077925560346893	0.2194070066970601	0.49969133969128443	 0 0 0
W 0.7496913350540936	0.7805929907727495	0.48922074439653107	 0 0 0
W 0.7607792407773822	0.28059300872387144	0.5003086603087156	 0 0 0
W 0.24969133969128446	0.7194069912761285	0.5107792556034689	 0 0 0
W 0.7392207526452965	0.2194070066970601	0.00030866510348997057	 0 0 0
W 0.25030866030871557	0.7805929907727495	0.010779247512287012	 0 0 0
O 0.23814491418258554	0.00797483318464382	-0.008600615878776231	 0 0 0
O 0.7586006070461576	-0.007974819024206296	-0.011855071133417687	 0 0 0
O 0.2618550711334177	0.49202516302467164	0.491399366440493	 0 0 0
O 0.741399377386319	0.5079748190242063	0.48814491897736	 0 0 0
O 0.7618550623007991	0.00797483318464382	0.5086006284650592	 0 0 0
O 0.24139936164571854	-0.007974819024206296	0.5118550759281921	 0 0 0
O 0.7381449221316776	0.49202516302467164	0.008600613781062421	 0 0 0
O 0.2586006236702847	0.5079748190242063	0.011855069035703877	 0 0 0
O 0.5038148406225571	0.2372189302597049	0.4526380542955293	 0 0 0
O 0.5007821409890987	0.7582020616448348	0.5473619265952118	 0 0 0
O -0.003814831033008197	0.262781060750093	0.9526380872955292	 0 0 0
O -0.0007821364939976374	0.7417979572435933	0.04736194991838741	 0 0 0
O 0.4961851593774429	0.2372189302597049	0.04736194991838741	 0 0 0
O 0.4992178590109013	0.7582020616448348	0.9526380872955292	 0 0 0
O 0.003814825638886944	0.262781060750093	0.5473619265952118	 0 0 0
O 0.0007821310998763844	0.7417979572435933	0.4526380542955293	 0 0 0
O 0.702638080139693	0.25820205235045746	0.7492178621652189	 0 0 0
O 0.297361938969566	0.7627810793343459	0.2538148406225571	 0 0 0
O 0.7973619333301165	0.24179793865934043	0.24921787848967253	 0 0 0
O 0.20263807029552927	0.7372189395540824	0.7538148437768747	 0 0 0
O 0.297361938969566	0.25820205235045746	0.7507821492378641	 0 0 0
O 0.702638080139693	0.7627810793343459	0.24618517885621413	 0 0 0
O 0.20263807029552927	0.24179793865934043	0.2507821409890987	 0 0 0
O 0.7973619333301165	0.7372189395540824	0.7461851676262083	 0 0 0

K_POINTS automatic
6 6 6 0 0 0
