&CONTROL
    calculation   = 'scf'
    restart_mode  = 'from_scratch'
    prefix        = 'Landau_19'
    pseudo_dir    = '/cluster/scratch/mnoe/QE/pps'
    outdir        = './'
/
&SYSTEM
    ibrav       = 0
    nat         = 32
    ntyp        = 2
    ecutwfc     = 120
    occupations = 'smearing'
    degauss     = 7.35d-4
    tot_charge  = -0.6
/
&ELECTRONS
    conv_thr    = 1.0d-8
    diagonalization = 'david'
/

CELL_PARAMETERS angstrom
   7.387279925   0.000000000   0.000000000
   0.000000000   7.467237035   0.000000000
   0.000000000   0.000000000   7.387279925

ATOMIC_SPECIES
W 183.84 W_ONCV_LDA-4.0.upf
O 15.9994 O_ONCV_LDA-3.0.upf

ATOMIC_POSITIONS crystal
W 0.21582848955	0.27996330121937024	-0.0009784828999999974	
W 0.7509784946677872	0.7200366987806297	-0.034171462950000044	
W 0.28417151045	0.22003671441076803	0.49902151045	
W 0.7490215070177872	0.7799632897536575	0.46582848955	
W 0.7841714747177873	0.27996330121937024	0.50097848955	
W 0.24902151045	0.7200366987806297	0.53417151045	
W 0.7158285269677872	0.22003671441076803	0.0009785047499999491	
W 0.25097848955	0.7799632897536575	0.0341714848	
O 0.212417981	0.007803282185535357	-0.027264965800000016	
O 0.7772649490677873	-0.007803272418439575	-0.03758197244999997	
O 0.28758197245000006	0.49219671611584764	0.47273497815	
O 0.7227350241177872	0.5078032724184396	0.46241799619999996	
O 0.7875819557177872	0.007803282185535357	0.5272650057	
O 0.22273496295	-0.007803272418439575	0.53758198765	
O 0.7124180174677873	0.49219671611584764	0.027264959150000056	
O 0.27726499050000003	0.5078032724184396	0.03758196580000002	
O 0.5120934943	0.20948250284999997	0.45417781304359395	
O 0.5024794791	0.7760015239020744	0.5458221747509698	
O -0.01209346390000001	0.29051746864999994	0.954177846043594	
O -0.0024794648499999964	0.7239985799520745	0.0458221853125337	
O 0.4879065057	0.20948250284999997	0.0458221853125337	
O 0.49752052089999993	0.7760015239020744	0.954177846043594	
O 0.012093446800000015	0.29051746864999994	0.5458221747509698	
O 0.0024794477500000023	0.7239985799520745	0.45417781304359395	
O 0.7041778353312429	0.27600147244999995	0.7475205421677873	
O 0.29582217687419327	0.7905175495520745	0.2620934943	
O 0.7958221848331826	0.22399849904999997	0.24752058265000002	
O 0.204177829043594	0.7094825543020745	0.7620935155677873	
O 0.29582217687419327	0.27600147244999995	0.7524795165177872	
O 0.7041778353312429	0.7905175495520745	0.23790656745000005	
O 0.204177829043594	0.22399849904999997	0.25247947910000007	
O 0.7958221848331826	0.7094825543020745	0.7379065431177873	

K_POINTS automatic
6 6 6 0 0 0
