&CONTROL
    calculation   = 'scf'
    restart_mode  = 'from_scratch'
    prefix        = 'Landau_19'
    pseudo_dir    = '/cluster/scratch/mnoe/QE/pps'
    outdir        = './'
/
&SYSTEM
    ibrav       = 0
    nat         = 32
    ntyp        = 2
    ecutwfc     = 120
    occupations = 'smearing'
    degauss     = 7.35d-4
    tot_charge  = -0.6
/
&ELECTRONS
    conv_thr    = 1.0d-8
    diagonalization = 'david'
/

CELL_PARAMETERS angstrom
   7.382093777   0.000000000   0.000000000
   0.000000000   7.446321669   0.000000000
   0.000000000   0.000000000   7.382093777

ATOMIC_SPECIES
W 183.84 W_ONCV_LDA-4.0.upf
O 15.9994 O_ONCV_LDA-3.0.upf

ATOMIC_POSITIONS crystal
W 0.266480001	0.27780168032321045	-0.982670022	
W 0.7326700003209311	0.7221983196767896	-0.983519999	
W 0.233519999	0.2221983360317313	-0.48266999	
W 0.7673299883209311	0.7778017223264064	-0.483519999	
W 0.7335199773209311	0.27780168032321045	-0.517329994	
W 0.267329994	0.7221983196767896	-0.516480001	
W 0.7664799473209312	0.2221983360317313	-1.01733001	
W 0.23266999	0.7778017223264064	-1.0164799690000001	
O 0.285109997	0.007218925233291111	-0.965060024	
O 0.7150600023209311	0.9927810593129309	-0.964890003	
O 0.214890003	0.49278110131612696	-0.46505999200000003	
O 0.7849399863209311	0.5072189406870691	-0.464890003	
O 0.7148899813209312	0.007218925233291111	-0.534940008	
O 0.284940008	0.9927810593129309	-0.535109997	
O 0.7851099433209311	0.49278110131612696	-1.034940008	
O 0.215059992	0.5072189406870691	-1.035109965	
O 0.492680066	0.291940015	-0.5406176232662883	
O 0.504789996	0.7203200123241271	-0.459382316020632	
O 0.007319987	0.20806	-1.0406176232662883	
O 0.995209971	0.7796800283241272	-0.9593823826720822	
O 0.507319999	0.291940015	-0.9593823826720822	
O 0.495210004	0.7203200123241271	-1.0406176232662883	
O 0.992680034	0.20806	-0.459382316020632	
O 0.004790008	0.7796800283241272	-0.5406176232662883	
O 0.709382321699701	0.220319992	-0.25479002967906894	
O 0.2906176015872194	0.7080600363241272	-0.757319999	
O 0.7906176896584369	0.279680008	-0.754789996	
O 0.20938236073371164	0.7919400043241271	-0.25732000867906896	
O 0.2906176015872194	0.220319992	-1.245209992679069	
O 0.709382321699701	0.7080600363241272	-0.742680066	
O 0.20938236073371164	0.279680008	-0.745210004	
O 0.7906176896584369	0.7919400043241271	-1.2426800556790691	

K_POINTS automatic
6 6 6 0 0 0
