
&CONTROL
    calculation   = 'vc-relax'
    restart_mode  = 'from_scratch'
    prefix        = 'Landau_1'
    pseudo_dir    = '/cluster/scratch/mnoe/QE/pps'
    outdir        = './'
    forc_conv_thr = 1.0d-7
    etot_conv_thr = 1.0d-7

/
&SYSTEM
    ibrav       = 0
    nat         = 32
    ntyp        = 2
    ecutwfc     = 120
    occupations = 'smearing'
    degauss     = 7.35d-4
    tot_charge  = -0.0
/
&ELECTRONS
    conv_thr    = 1.0d-8
    diagonalization = 'david'
/


&IONS
ion_dynamics = 'bfgs'
/

&CELL
cell_dynamics = 'bfgs'
cell_dofree = 'all'
/
CELL_PARAMETERS angstrom
        7.3236460686         0.0000000000         0.0000000000
        0.0000000000         7.7495899200         0.0000000000
        0.0000000000         0.0000000000         7.3236460686

ATOMIC_SPECIES
W 183.84 W_ONCV_LDA-4.0.upf
O 15.9994 O_ONCV_LDA-3.0.upf

ATOMIC_POSITIONS crystal
W 0.2497690117866418	0.2814672948587458	0.00021812780099220882	 0 0 0
W 0.7502309859135977	0.7185327051412542	-0.00021812751381767396	 0 0 0
W 0.2502309882133582	0.21853272027172305	0.5002181279258507	 0 0 0
W 0.7497690099114002	0.7814672679032791	0.4997818720741493	 0 0 0
W 0.7502309859135977	0.2814672948587458	0.4997818720741493	 0 0 0
W 0.2497690117866418	0.7185327051412542	0.5002181279258507	 0 0 0
W 0.7497690099114002	0.21853272027172305	-0.00021812751381767396	 0 0 0
W 0.2502309882133582	0.7814672679032791	0.00021812780099220882	 0 0 0
O 0.2495738577986615	0.008213014655997216	6.779816208297263e-05	 0 0 0
O 0.7504261395020307	-0.008212994395842372	-6.779824948391771e-05	 0 0 0
O 0.2504261420015649	0.491786978648691	0.5000677978374509	 0 0 0
O 0.749573856322967	0.5082129943958423	0.49993220175051606	 0 0 0
O 0.7504261395020307	0.008213014655997216	0.49993220175051606	 0 0 0
O 0.2495738577986615	-0.008212994395842372	0.5000677978374509	 0 0 0
O 0.749573856322967	0.491786978648691	-6.779824948391771e-05	 0 0 0
O 0.2504261420015649	0.5082129943958423	6.779816208297263e-05	 0 0 0
O 0.5000631784977027	0.24956287042601719	0.450500252673567	 0 0 0
O 0.4999368215022974	0.7504371167183028	0.5494997186319039	 0 0 0
O -6.317890973563314e-05	0.25043712919940736	0.950500285673567	 0 0 0
O 6.317787341013519e-05	0.7495628579449126	0.04949975967330608	 0 0 0
O 0.4999368215022974	0.24956287042601719	0.04949975967330608	 0 0 0
O 0.5000631784977027	0.7504371167183028	0.950500285673567	 0 0 0
O 6.317787341013519e-05	0.25043712919940736	0.5494997186319039	 0 0 0
O -6.317890973563314e-05	0.7495628579449126	0.450500252673567	 0 0 0
O 0.7005002834555971	0.24990460813577944	0.7499042316226274	 0 0 0
O 0.2994997452389319	0.7500953793956019	0.25009576628987146	 0 0 0
O 0.799499720719405	0.25009539186422053	0.24990423452170873	 0 0 0
O 0.20050026867356702	0.7499045952800995	0.7500957642023703	 0 0 0
O 0.2994997452389319	0.24990460813577944	0.7500957642023703	 0 0 0
O 0.7005002834555971	0.7500953793956019	0.24990423452170873	 0 0 0
O 0.20050026867356702	0.25009539186422053	0.25009576628987146	 0 0 0
O 0.799499720719405	0.7499045952800995	0.7499042316226274	 0 0 0

K_POINTS automatic
6 6 6 0 0 0
