&CONTROL
    calculation   = 'scf'
    restart_mode  = 'from_scratch'
    prefix        = 'chempot_5'
    pseudo_dir    = '/cluster/scratch/mnoe/QE/pps'
    outdir        = './'
/
&SYSTEM
    ibrav       = 0
    nat         = 16 
    ntyp        = 2
    ecutwfc     = 120
    occupations = 'smearing'
    degauss     = 7.35d-4
    tot_charge  = -.25
/
&ELECTRONS
    conv_thr    = 1.0d-8
    diagonalization = 'david'
/
CELL_PARAMETERS angstrom
   5.249682979   0.000000000   0.000000000
   0.000000000   5.249682979   0.000000000
   0.000000000   0.000000000   7.665281603


ATOMIC_SPECIES
W 183.84 W_ONCV_LDA-4.0.upf
O 15.9994 O_ONCV_LDA-3.0.upf

ATOMIC_POSITIONS crystal
W 0.24999999999994904	0.24999999999990924	0.21133006510948824	
W 0.7500000229999553	0.7500000229999831	0.7886699498885783	
W 0.7500000230000149	0.7500000230000387	0.28866994989051065	
W 0.24999999999993974	0.2500000000000287	0.7113300501114219	
O 0.24999999999978362	0.24999999999993144	0.47882068741463757	
O 0.750000022999994	0.750000023000258	0.5211793125883349	
O 0.7500000229998975	0.7500000230000151	0.021179325585366515	
O 0.24999999999981484	0.250000000000043	0.9788206874116584	
O 0.48451824082317324	0.515481713176769	0.25000000000003353	
O 0.5154817591981748	0.48451828680184933	0.7499999999999989	
O 0.015481742177040195	0.9845182868228494	0.2500000000000033	
O 0.9845181948021171	0.015481776197962926	0.7500000000001633	
O 0.9845182868229784	0.4845182408229486	0.2500000000001256	
O 0.015481776198158978	0.5154817591981558	0.7499999999999802	
O 0.5154817131769261	0.015481742176966531	0.24999999999990521	
O 0.48451828680213094	0.9845181948020785	0.749999999999796	

K_POINTS automatic
9 9 6 0 0 0
