&CONTROL
    calculation   = 'scf'
    restart_mode  = 'from_scratch'
    prefix        = 'Landau_1'
    pseudo_dir    = '/cluster/scratch/mnoe/QE/pps'
    outdir        = './'
/
&SYSTEM
    ibrav       = 0
    nat         = 32
    ntyp        = 2
    ecutwfc     = 120
    occupations = 'smearing'
    degauss     = 7.35d-4
    tot_charge  = -0.36
/
&ELECTRONS
    conv_thr    = 1.0d-8
    diagonalization = 'david'
/

CELL_PARAMETERS angstrom
7.35502285141245190802 0 0
0 7.74356386249482696166 0
0 0 7.35448825286249036914

ATOMIC_SPECIES
W 183.84 W_ONCV_LDA-4.0.upf
O 15.9994 O_ONCV_LDA-3.0.upf

ATOMIC_POSITIONS crystal
W                      0.249540001         0.281860003         0.000440000
W                      0.750460016         0.718139997         0.999559974
W                      0.250459999         0.218140012         0.500439994
W                      0.749539984         0.781859972         0.499560006
W                     0.750460016         0.281860003         0.499560006
W                     0.249540001         0.718139997         0.500439994
W                     0.749539984         0.218140012         0.999559974
W                     0.250459999         0.781859972         0.000440000
O                      0.249149997         0.008320000         0.000140000
O                      0.750850036         0.991680023         0.999860009
O                      0.250850020         0.491679992         0.500140023
O                      0.749149964         0.508319977         0.499859977
O                      0.750850036         0.008320000         0.499859977
O                      0.249149997         0.991680023         0.500140023
O                      0.749149964         0.491679992         0.999860009
O                      0.250850020         0.508319977         0.000140000
O               0.500129996         0.249119995         0.449540004
O               0.499870004         0.750880021         0.550459963
O               0.999869972         0.250880005         0.949540037
O               0.000129938         0.749120010         0.050460012
O              0.499870004         0.249119995         0.050460012
O              0.500129996         0.750880021         0.949540037
O              0.000129938         0.250880005         0.550459963
O              0.999869972         0.749120010         0.449540004
O              0.699540037         0.249809988         0.749810003
O              0.300459996         0.750189997         0.250190013
O              0.800459963         0.250190012         0.249809987
O              0.199540020         0.749809973         0.750189997
O              0.300459996         0.249809988         0.750189997
O              0.699540037         0.750189997         0.249809987
O              0.199540020         0.250190012         0.250190013
O              0.800459963         0.749809973         0.749810003

K_POINTS automatic
6 6 6 0 0 0
