
&CONTROL
    calculation   = 'vc-relax'
    restart_mode  = 'from_scratch'
    prefix        = 'Landau_10'
    pseudo_dir    = '/cluster/scratch/mnoe/QE/pps'
    outdir        = './'
    forc_conv_thr = 1.0d-7
    etot_conv_thr = 1.0d-7

/
&SYSTEM
    ibrav       = 0
    nat         = 32
    ntyp        = 2
    ecutwfc     = 120
    occupations = 'smearing'
    degauss     = 7.35d-4
    tot_charge  = -0.0
/
&ELECTRONS
    conv_thr    = 1.0d-8
    diagonalization = 'david'
/


&IONS
ion_dynamics = 'bfgs'
/

&CELL
cell_dynamics = 'bfgs'
cell_dofree = 'all'
/
CELL_PARAMETERS angstrom
        7.3236460686         0.0000000000         0.0000000000
        0.0000000000         7.7495899200         0.0000000000
        0.0000000000         0.0000000000         7.3236460686

ATOMIC_SPECIES
W 183.84 W_ONCV_LDA-4.0.upf
O 15.9994 O_ONCV_LDA-3.0.upf

ATOMIC_POSITIONS crystal
W 0.25	0.2778801808840871	0.0	 0 0 0
W 0.7499999788446378	0.7221198191159129	0.0	 0 0 0
W 0.25	0.22211983543812297	0.5	 0 0 0
W 0.7499999788446378	0.7778801908726015	0.5	 0 0 0
W 0.7499999788446378	0.2778801808840871	0.5	 0 0 0
W 0.25	0.7221198191159129	0.5	 0 0 0
W 0.7499999788446378	0.22211983543812297	0.0	 0 0 0
W 0.25	0.7778801908726015	0.0	 0 0 0
O 0.25	0.007235778428272593	0.0	 0 0 0
O 0.7499999788446378	0.9927642168053145	0.0	 0 0 0
O 0.25	0.49276422679382886	0.5	 0 0 0
O 0.7499999788446378	0.5072357831946855	0.5	 0 0 0
O 0.7499999788446378	0.007235778428272593	0.5	 0 0 0
O 0.25	0.9927642168053145	0.5	 0 0 0
O 0.7499999788446378	0.49276422679382886	0.0	 0 0 0
O 0.25	0.5072357831946855	0.0	 0 0 0
O 0.5	0.25	0.4592714521325302	 0 0 0
O 0.5	0.7500000048331521	0.5407285585004045	 0 0 0
O 0.0	0.25	0.9592714851325302	 0 0 0
O 0.0	0.7500000048331521	0.04072852684558581	 0 0 0
O 0.5	0.25	0.04072852684558581	 0 0 0
O 0.5	0.7500000048331521	0.9592714851325302	 0 0 0
O 0.0	0.25	0.5407285585004045	 0 0 0
O 0.0	0.7500000048331521	0.4592714521325302	 0 0 0
O 0.7092714626549579	0.25	0.7499999788446378	 0 0 0
O 0.29072852671210747	0.7500000048331521	0.25	 0 0 0
O 0.7907285796557667	0.25	0.25	 0 0 0
O 0.20927146813253023	0.7500000048331521	0.7499999788446378	 0 0 0
O 0.29072852671210747	0.25	0.7499999788446378	 0 0 0
O 0.7092714626549579	0.7500000048331521	0.25	 0 0 0
O 0.20927146813253023	0.25	0.25	 0 0 0
O 0.7907285796557667	0.7500000048331521	0.7499999788446378	 0 0 0

K_POINTS automatic
6 6 6 0 0 0
