
&CONTROL
    calculation   = 'vc-relax'
    restart_mode  = 'from_scratch'
    prefix        = 'Landau_20'
    pseudo_dir    = '/cluster/scratch/mnoe/QE/pps'
    outdir        = './'
    forc_conv_thr = 1.0d-7
    etot_conv_thr = 1.0d-7

/
&SYSTEM
    ibrav       = 0
    nat         = 32
    ntyp        = 2
    ecutwfc     = 120
    occupations = 'smearing'
    degauss     = 7.35d-4
    tot_charge  = -0.0
/
&ELECTRONS
    conv_thr    = 1.0d-8
    diagonalization = 'david'
/


&IONS
ion_dynamics = 'bfgs'
/

&CELL
cell_dynamics = 'bfgs'
cell_dofree = 'all'
/
CELL_PARAMETERS angstrom
        7.3236460686         0.0000000000         0.0000000000
        0.0000000000         7.7495899200         0.0000000000
        0.0000000000         0.0000000000         7.3236460686

ATOMIC_SPECIES
W 183.84 W_ONCV_LDA-4.0.upf
O 15.9994 O_ONCV_LDA-3.0.upf

ATOMIC_POSITIONS crystal
W 0.21841232444895786	0.27790032681173343	0.0036107209340747147	 0 0 0
W 0.7554123111226662	0.7220996731882665	-0.03132925806592533	 0 0 0
W 0.2815876755510422	0.2220996895037836	0.5036107181985083	 0 0 0
W 0.7445876640112591	0.7779003365927633	0.4686706961985083	 0 0 0
W 0.7815876300112591	0.27790032681173343	0.4963892818014916	 0 0 0
W 0.24458767555104216	0.7220996731882665	0.5313293038014917	 0 0 0
W 0.7184123451226662	0.2220996895037836	-0.0036106979340747684	 0 0 0
W 0.25541232444895784	0.7779003365927633	0.03132928106592528	 0 0 0
O 0.2118020920309649	0.007241266776419936	-0.020138495371911844	 0 0 0
O 0.7800620479826915	-0.007241271402278841	-0.030998502371911804	 0 0 0
O 0.2881978672470534	0.492758738378751	0.4798614539061064	 0 0 0
O 0.7199379046767049	0.5072412714022788	0.4690014729061064	 0 0 0
O 0.788197832676705	0.007241266776419936	0.520138525080309	 0 0 0
O 0.21993785724705336	-0.007241271402278841	0.530998506080309	 0 0 0
O 0.7118021199826915	0.492758738378751	0.020138488371911886	 0 0 0
O 0.28006210203096493	0.5072412714022788	0.030998495371911846	 0 0 0
O 0.5108059853922887	0.209266489146767	0.4592221913755762	 0 0 0
O 0.5006859693922887	0.7792865181167878	0.5407778190364877	 0 0 0
O -0.010805969697476206	0.290733480853233	0.9592222243755762	 0 0 0
O -0.0006859706974761907	0.7207135970469337	0.0407777877899452	 0 0 0
O 0.4891940146077112	0.209266489146767	0.0407777877899452	 0 0 0
O 0.4993140306077112	0.7792865181167878	0.9592222243755762	 0 0 0
O 0.010805935392288753	0.290733480853233	0.5407778190364877	 0 0 0
O 0.0006859363922887378	0.7207135970469337	0.4592221913755762	 0 0 0
O 0.7092222020117858	0.2685877539644403	0.7461207275358646	 0 0 0
O 0.29077778757615025	0.7838678344089901	0.26146069586215626	 0 0 0
O 0.7907778400847612	0.2314122235610308	0.24612078886215624	 0 0 0
O 0.20922220737557623	0.7161322810055806	0.7614606995358646	 0 0 0
O 0.29077778757615025	0.2685877539644403	0.7538792925471185	 0 0 0
O 0.7092222020117858	0.7838678344089901	0.23853936913784382	 0 0 0
O 0.20922220737557623	0.2314122235610308	0.25387927613784383	 0 0 0
O 0.7907778400847612	0.7161322810055806	0.7385393205471185	 0 0 0

K_POINTS automatic
6 6 6 0 0 0
