&CONTROL
    calculation   = 'scf'
    restart_mode  = 'from_scratch'
    prefix        = 'Landau_13'
    pseudo_dir    = '/cluster/scratch/mnoe/QE/pps'
    outdir        = './'
/
&SYSTEM
    ibrav       = 0
    nat         = 16
    ntyp        = 2
    ecutwfc     = 120
    occupations = 'smearing'
    degauss     = 7.35d-4
    tot_charge  = -0.05
/
&ELECTRONS
    conv_thr    = 1.0d-8
    diagonalization = 'david'
/

CELL_PARAMETERS angstrom
   5.234621665   0.000000000   0.000000000
   0.000000000   5.234621665   0.000000000
   0.000000000   0.000000000   7.691852947

ATOMIC_SPECIES
W 183.84 W_ONCV_LDA-4.0.upf
O 15.9994 O_ONCV_LDA-3.0.upf

ATOMIC_POSITIONS crystal
W       0.2499999999999669	0.249999999999941	0.21370653917116736	
W       0.7500000229999709	0.750000022999989	0.7862934758275759	
W       0.7500000230000097	0.7500000230000251	0.2862934758288319	
W       0.24999999999996084	0.25000000000001865	0.7137065241724242	
O      0.24999999999985933	0.24999999999995545	0.48331795591951443	
O      0.7500000229999961	0.7500000230001677	0.5166820440824177	
O      0.7500000229999334	0.7500000230000099	0.016682057080488234	
O      0.24999999999987965	0.250000000000028	0.983317955917578	
O       0.4722303481350626	0.5277696058648998	0.25000000000002176	
O       0.5277696518788136	0.47223039412120205	0.7499999999999992	
O       0.027769634865076123	0.9722303941348521	0.2500000000000021	
O       0.9722303021213761	0.0277696688786759	0.7500000000001061	
O       0.972230394134936	0.4722303481349166	0.25000000000008166	
O       0.027769668878803336	0.5277696518788012	0.7499999999999871	
O       0.527769605865002	0.027769634865028245	0.24999999999993838	
O       0.4722303941213851	0.972230302121351	0.7499999999998674	

K_POINTS automatic
9 9 6 0 0 0
