&CONTROL
    calculation   = 'scf'
    restart_mode  = 'from_scratch'
    prefix        = 'Landau_9'
    pseudo_dir    = '/cluster/scratch/mnoe/QE/pps'
    outdir        = './'
/
&SYSTEM
    ibrav       = 0
    nat         = 32
    ntyp        = 2
    ecutwfc     = 120
    occupations = 'smearing'
    degauss     = 7.35d-4
    tot_charge  = -0.68
/
&ELECTRONS
    conv_thr    = 1.0d-8
    diagonalization = 'david'
/

CELL_PARAMETERS angstrom
   7.322873437   0.000000000   0.000000000
   0.000000000   7.741784925   0.000000000
   0.000000000   0.000000000   7.325850539

ATOMIC_SPECIES
W 183.84 W_ONCV_LDA-4.0.upf
O 15.9994 O_ONCV_LDA-3.0.upf

ATOMIC_POSITIONS crystal
W         0.245840001         0.281860003         0.003930000
W         0.754159999         0.718139997         0.996070041
W         0.254159983         0.218140012         0.503929959
W         0.745840001         0.781859972         0.496070009
W         0.754159999         0.281860003         0.496070009
W         0.245840001         0.718139997         0.503929959
W         0.745840001         0.218140012         0.996070041
W         0.254159983         0.781859972         0.003930000
O         0.242320003         0.008320000         0.001220000
O         0.757680014         0.991680023         0.998779998
O         0.257679997         0.491679992         0.501220002
O         0.742319986         0.508319977         0.498779998
O         0.757680014         0.008320000         0.498779998
O         0.242320003         0.991680023         0.501220002
O         0.742319986         0.491679992         0.998779998
O         0.257679997         0.508319977         0.001220000
O         0.501140012         0.242119995         0.449540004
O         0.498859988         0.757879944         0.550459963
O         0.998860021         0.257880005         0.949540037
O         0.001139998         0.742120025         0.050460012
O         0.498859988         0.242119995         0.050460012
O         0.501140012         0.757879944         0.949540037
O         0.001139998         0.257880005         0.550459963
O         0.998860021         0.742120025         0.449540004
O         0.699540037         0.248280001         0.748269977
O         0.300459996         0.751719999         0.251730023
O         0.800459963         0.251720015         0.248270042
O         0.199540020         0.748279970         0.751730023
O         0.300459996         0.248280001         0.751730023
O         0.699540037         0.751719999         0.248270042
O         0.199540020         0.251720015         0.251730023
O         0.800459963         0.748279970         0.748269977

K_POINTS automatic
6 6 6 0 0 0
