
&CONTROL
    calculation   = 'vc-relax'
    restart_mode  = 'from_scratch'
    prefix        = 'Landau_26'
    pseudo_dir    = '/cluster/scratch/mnoe/QE/pps'
    outdir        = './'
    forc_conv_thr = 1.0d-7
    etot_conv_thr = 1.0d-7

/
&SYSTEM
    ibrav       = 0
    nat         = 32
    ntyp        = 2
    ecutwfc     = 120
    occupations = 'smearing'
    degauss     = 7.35d-4
    tot_charge  = -0.0
/
&ELECTRONS
    conv_thr    = 1.0d-8
    diagonalization = 'david'
/


&IONS
ion_dynamics = 'bfgs'
/

&CELL
cell_dynamics = 'bfgs'
cell_dofree = 'all'
/
CELL_PARAMETERS angstrom
        7.3236460686         0.0000000000         0.0000000000
        0.0000000000         7.7495899200         0.0000000000
        0.0000000000         0.0000000000         7.3236460686

ATOMIC_SPECIES
W 183.84 W_ONCV_LDA-4.0.upf
O 15.9994 O_ONCV_LDA-3.0.upf

ATOMIC_POSITIONS crystal
        0.237979985         0.281860003         0.011360000 0 0 0
        0.762019982         0.718139997         0.988639992 0 0 0
        0.262019998         0.218140012         0.511359975 0 0 0
        0.737980018         0.781859972         0.488640025 0 0 0
        0.762019982         0.281860003         0.488640025 0 0 0
        0.237979985         0.718139997         0.511359975 0 0 0
        0.737980018         0.218140012         0.988639992 0 0 0
        0.262019998         0.781859972         0.011360000 0 0 0
        0.227819990         0.008320000         0.003530000 0 0 0
        0.772180043         0.991680023         0.996469958 0 0 0
        0.272180026         0.491679992         0.503530042 0 0 0
        0.727819957         0.508319977         0.496469991 0 0 0
        0.772180043         0.008320000         0.496469991 0 0 0
        0.227819990         0.991680023         0.503530042 0 0 0
        0.727819957         0.491679992         0.996469958 0 0 0
        0.272180026         0.508319977         0.003530000 0 0 0
        0.503290007         0.227239989         0.449540004 0 0 0
        0.496709993         0.772760011         0.550459963 0 0 0
        0.996710026         0.272760011         0.949540037 0 0 0
        0.003289938         0.727239958         0.050460012 0 0 0
        0.496709993         0.227239989         0.050460012 0 0 0
        0.503290007         0.772760011         0.949540037 0 0 0
        0.003289938         0.272760011         0.550459963 0 0 0
        0.996710026         0.727239958         0.449540004 0 0 0
        0.699540037         0.245029999         0.745010019 0 0 0
        0.300459996         0.754970016         0.254989981 0 0 0
        0.800459963         0.254970016         0.245010019 0 0 0
        0.199540020         0.745030015         0.754989981 0 0 0
        0.300459996         0.245029999         0.754989981 0 0 0
        0.699540037         0.754970016         0.245010019 0 0 0
        0.199540020         0.254970016         0.254989981 0 0 0
        0.800459963         0.745030015         0.745010019 0 0 0

K_POINTS automatic
6 6 6 0 0 0
