&CONTROL
    calculation   = 'scf'
    restart_mode  = 'from_scratch'
    prefix        = 'Landau_13'
    pseudo_dir    = '/cluster/scratch/mnoe/QE/pps'
    outdir        = './'
/
&SYSTEM
    ibrav       = 0
    nat         = 32
    ntyp        = 2
    ecutwfc     = 120
    occupations = 'smearing'
    degauss     = 7.35d-4
    tot_charge  = -0.2
/
&ELECTRONS
    conv_thr    = 1.0d-8
    diagonalization = 'david'
/

CELL_PARAMETERS angstrom
   7.367154400   0.000000000   0.000000000
   0.000000000   7.592446969   0.000000000
   0.000000000   0.000000000   7.367154400

ATOMIC_SPECIES
W 183.84 W_ONCV_LDA-4.0.upf
O 15.9994 O_ONCV_LDA-3.0.upf

ATOMIC_POSITIONS crystal
W 0.261269982	0.27908957832640713	-0.988140006	
W 0.7381399911669528	0.7209104216735929	-0.988730034	
W 0.238730002	0.22091043760065826	-0.48814000599999996	
W 0.7618600111669529	0.7790896070654361	-0.488730002	
W 0.7387300191669529	0.27908957832640713	-0.5118600099999999	
W 0.26186001	0.7209104216735929	-0.511269982	
W 0.7612699831669528	0.22091043760065826	-1.011860026	
W 0.238140006	0.7790896070654361	-1.011269998	
O 0.274020032	0.007569786843830761	-0.976089984	
O 0.7260899691669529	0.9924302066877948	-0.975980001	
O 0.225980001	0.4924302354268237	-0.47609	
O 0.7739099691669529	0.5075697933122052	-0.47598000100000004	
O 0.7259799861669529	0.007569786843830761	-0.523909984	
O 0.273909984	0.9924302066877948	-0.524020032	
O 0.7740200171669529	0.4924302354268237	-1.0239099839999999	
O 0.22609	0.5075697933122052	-1.0240200320000001	
O 0.494990005	0.278699984	-0.5437667872874604	
O 0.503280056	0.7296899649059817	-0.4562331661193798	
O 0.005010009	0.221300001	-1.0437667872874603	
O 0.996719976	0.7703100629059817	-0.956233206670372	
O 0.505009995	0.278699984	-0.956233206670372	
O 0.496719976	0.7296899649059817	-1.0437667872874603	
O 0.994990005	0.221300001	-0.4562331661193798	
O 0.003280014	0.7703100629059817	-0.5437667872874604	
O 0.7062331649524269	0.229689982	-0.2532800288330471	
O 0.29376677245441324	0.7212999989059817	-0.755009995	
O 0.7937668327136673	0.270310018	-0.753280056	
O 0.20623319671253953	0.7787000289059817	-0.2550100238330471	
O 0.29376677245441324	0.229689982	-1.2467199908330473	
O 0.7062331649524269	0.7212999989059817	-0.744990005	
O 0.20623319671253953	0.270310018	-0.7467199760000001	
O 0.7937668327136673	0.7787000289059817	-1.2449900198330472	

K_POINTS automatic
6 6 6 0 0 0
