&CONTROL
    calculation   = 'scf'
    restart_mode  = 'from_scratch'
    prefix        = 'Landau_12'
    pseudo_dir    = '/cluster/scratch/mnoe/QE/pps'
    outdir        = './'
/
&SYSTEM
    ibrav       = 0
    nat         = 32
    ntyp        = 2
    ecutwfc     = 120
    occupations = 'smearing'
    degauss     = 7.35d-4
    tot_charge  = -0.2
/
&ELECTRONS
    conv_thr    = 1.0d-8
    diagonalization = 'david'
/

CELL_PARAMETERS angstrom
   7.356698727   0.000000000   0.000000000
   0.000000000   7.628519696   0.000000000
   0.000000000   0.000000000   7.356698727

ATOMIC_SPECIES
W 183.84 W_ONCV_LDA-4.0.upf
O 15.9994 O_ONCV_LDA-3.0.upf

ATOMIC_POSITIONS crystal
W 0.22841799340000002	0.2806620860859181	-0.0006179891999999985	
W 0.7506179966322867	0.719337913914082	-0.021581976600000028	
W 0.27158200660000004	0.219337929312064	0.4993820066	
W 0.7493820044322866	0.7806620674233626	0.47841799339999996	
W 0.7715819840322867	0.2806620860859181	0.5006179934	
W 0.2493820066	0.719337913914082	0.5215820066	
W 0.7284180170322867	0.219337929312064	0.0006180029999999677	
W 0.2506179934	0.7806620674233626	0.021581990399999997	
O 0.226263988	0.007993651906653909	-0.017219978400000002	
O 0.7672199678322867	-0.007993637264277619	-0.023735982599999976	
O 0.27373598260000004	0.4920063440731669	0.4827799862	
O 0.7327800152322866	0.5079936372642776	0.4762639976	
O 0.7737359720322867	0.007993651906653909	0.5172200036	
O 0.23277997660000002	-0.007993637264277619	0.5237359922	
O 0.7262640110322867	0.4920063440731669	0.01721997420000003	
O 0.267219994	0.5079936372642776	0.023735978400000003	
O 0.5076379964	0.22441000179999998	0.45246914655384884	
O 0.5015659868	0.7664220095697313	0.5475308335795599	
O -0.007637977200000005	0.2755899802	0.9524691795538488	
O -0.0015659777999999978	0.7335780449697313	0.04753085830265286	
O 0.4923620036	0.22441000179999998	0.04753085830265286	
O 0.49843401319999997	0.7664220095697313	0.9524691795538488	
O 0.00763796640000001	0.2755899802	0.5475308335795599	
O 0.0015659670000000019	0.7335780449697313	0.45246914655384884	
O 0.7024691727881535	0.2664219826	0.7484340266322866	
O 0.29753084707843785	0.7755900257697312	0.2576379964	
O 0.7975308399472731	0.23357799939999999	0.2484340522	
O 0.20246916255384884	0.7244100287697313	0.7576380098322867	
O 0.29753084707843785	0.2664219826	0.7515660104322867	
O 0.7024691727881535	0.7755900257697312	0.24236204260000002	
O 0.20246916255384884	0.23357799939999999	0.25156598680000003	
O 0.7975308399472731	0.7244100287697313	0.7423620272322867	

K_POINTS automatic
6 6 6 0 0 0
