
&CONTROL
    calculation   = 'vc-relax'
    restart_mode  = 'from_scratch'
    prefix        = 'Landau_37'
    pseudo_dir    = '/cluster/scratch/mnoe/QE/pps'
    outdir        = './'
    forc_conv_thr = 1.0d-7
    etot_conv_thr = 1.0d-7

/
&SYSTEM
    ibrav       = 0
    nat         = 32
    ntyp        = 2
    ecutwfc     = 120
    occupations = 'smearing'
    degauss     = 7.35d-4
    tot_charge  = -0.0
/
&ELECTRONS
    conv_thr    = 1.0d-8
    diagonalization = 'david'
/


&IONS
ion_dynamics = 'bfgs'
/

&CELL
cell_dynamics = 'bfgs'
cell_dofree = 'all'
/
CELL_PARAMETERS angstrom
        7.3236460686         0.0000000000         0.0000000000
        0.0000000000         7.7495899200         0.0000000000
        0.0000000000         0.0000000000         7.3236460686

ATOMIC_SPECIES
W 183.84 W_ONCV_LDA-4.0.upf
O 15.9994 O_ONCV_LDA-3.0.upf

ATOMIC_POSITIONS crystal
W 0.25	0.276702328278146	0.0	 0 0 0
W 0.7499999725835794	0.723297671721854	0.0	 0 0 0
W 0.25	0.2232976884353802	0.5	 0 0 0
W 0.7499999725835794	0.776702350397461	0.5	 0 0 0
W 0.7499999725835794	0.276702328278146	0.5	 0 0 0
W 0.25	0.723297671721854	0.5	 0 0 0
W 0.7499999725835794	0.2232976884353802	0.0	 0 0 0
W 0.25	0.776702350397461	0.0	 0 0 0
O 0.25	0.006914896447500006	0.0	 0 0 0
O 0.7499999725835794	0.993085090568448	0.0	 0 0 0
O 0.25	0.4930851126877629	0.5	 0 0 0
O 0.7499999725835794	0.506914909431552	0.5	 0 0 0
O 0.7499999725835794	0.006914896447500006	0.5	 0 0 0
O 0.25	0.993085090568448	0.5	 0 0 0
O 0.7499999725835794	0.4930851126877629	0.0	 0 0 0
O 0.25	0.506914909431552	0.0	 0 0 0
O 0.5	0.25	0.4621515335051752	 0 0 0
O 0.5	0.7500000107028943	0.5378484900411923	 0 0 0
O 0.0	0.25	0.9621515665051752	 0 0 0
O 0.0	0.7500000107028943	0.03784843451608866	 0 0 0
O 0.5	0.25	0.03784843451608866	 0 0 0
O 0.5	0.7500000107028943	0.9621515665051752	 0 0 0
O 0.0	0.25	0.5378484900411923	 0 0 0
O 0.0	0.7500000107028943	0.4621515335051752	 0 0 0
O 0.7121515373752283	0.25	0.7499999725835794	 0 0 0
O 0.2878484390784041	0.7500000107028943	0.25	 0 0 0
O 0.7878485174576129	0.25	0.25	 0 0 0
O 0.2121515495051752	0.7500000107028943	0.7499999725835794	 0 0 0
O 0.2878484390784041	0.25	0.7499999725835794	 0 0 0
O 0.7121515373752283	0.7500000107028943	0.25	 0 0 0
O 0.2121515495051752	0.25	0.25	 0 0 0
O 0.7878485174576129	0.7500000107028943	0.7499999725835794	 0 0 0

K_POINTS automatic
6 6 6 0 0 0
