
&CONTROL
    calculation   = 'vc-relax'
    restart_mode  = 'from_scratch'
    prefix        = 'Landau_23'
    pseudo_dir    = '/cluster/scratch/mnoe/QE/pps'
    outdir        = './'
    forc_conv_thr = 1.0d-7
    etot_conv_thr = 1.0d-7

/
&SYSTEM
    ibrav       = 0
    nat         = 32
    ntyp        = 2
    ecutwfc     = 120
    occupations = 'smearing'
    degauss     = 7.35d-4
    tot_charge  = -0.0
/
&ELECTRONS
    conv_thr    = 1.0d-8
    diagonalization = 'david'
/


&IONS
ion_dynamics = 'bfgs'
/

&CELL
cell_dynamics = 'bfgs'
cell_dofree = 'all'
/
CELL_PARAMETERS angstrom
        7.3236460686         0.0000000000         0.0000000000
        0.0000000000         7.7495899200         0.0000000000
        0.0000000000         0.0000000000         7.3236460686

ATOMIC_SPECIES
W 183.84 W_ONCV_LDA-4.0.upf
O 15.9994 O_ONCV_LDA-3.0.upf

ATOMIC_POSITIONS crystal
W 0.25	0.2786538808756043	0.0	 0 0 0
W 0.7499999829573601	0.7213461191243957	0.0	 0 0 0
W 0.25	0.22134613518956067	0.5	 0 0 0
W 0.7499999829573601	0.778653882895719	0.5	 0 0 0
W 0.7499999829573601	0.2786538808756043	0.5	 0 0 0
W 0.25	0.7213461191243957	0.5	 0 0 0
W 0.7499999829573601	0.22134613518956067	0.0	 0 0 0
W 0.25	0.778653882895719	0.0	 0 0 0
O 0.25	0.007446557251148653	0.0	 0 0 0
O 0.7499999829573601	0.9925534433803865	0.0	 0 0 0
O 0.25	0.4925534454005013	0.5	 0 0 0
O 0.7499999829573601	0.5074465566196135	0.5	 0 0 0
O 0.7499999829573601	0.007446557251148653	0.5	 0 0 0
O 0.25	0.9925534433803865	0.5	 0 0 0
O 0.7499999829573601	0.4925534454005013	0.0	 0 0 0
O 0.25	0.5074465566196135	0.0	 0 0 0
O 0.5	0.25	0.4573796034221359	 0 0 0
O 0.5	0.7500000009774749	0.5426203987283087	 0 0 0
O 0.0	0.25	0.957379636422136	 0 0 0
O 0.0	0.7500000009774749	0.0426203827532443	 0 0 0
O 0.5	0.25	0.0426203827532443	 0 0 0
O 0.5	0.7500000009774749	0.957379636422136	 0 0 0
O 0.0	0.25	0.5426203987283087	 0 0 0
O 0.0	0.7500000009774749	0.4573796034221359	 0 0 0
O 0.7073796183143312	0.25	0.7499999829573601	 0 0 0
O 0.2926203795352242	0.7500000009774749	0.25	 0 0 0
O 0.7926204157709485	0.25	0.25	 0 0 0
O 0.20737961942213595	0.7500000009774749	0.7499999829573601	 0 0 0
O 0.2926203795352242	0.25	0.7499999829573601	 0 0 0
O 0.7073796183143312	0.7500000009774749	0.25	 0 0 0
O 0.20737961942213595	0.25	0.25	 0 0 0
O 0.7926204157709485	0.7500000009774749	0.7499999829573601	 0 0 0

K_POINTS automatic
6 6 6 0 0 0
