&CONTROL
    calculation   = 'scf'
    restart_mode  = 'from_scratch'
    prefix        = 'Landau_18'
    pseudo_dir    = '/cluster/scratch/mnoe/QE/pps'
    outdir        = './'
/
&SYSTEM
    ibrav       = 0
    nat         = 32
    ntyp        = 2
    ecutwfc     = 120
    occupations = 'smearing'
    degauss     = 7.35d-4
    tot_charge  = -0.2
/
&ELECTRONS
    conv_thr    = 1.0d-8
    diagonalization = 'david'
/

CELL_PARAMETERS angstrom
   7.382465341   0.000000000   0.000000000
   0.000000000   7.493798631   0.000000000
   0.000000000   0.000000000   7.382465341

ATOMIC_SPECIES
W 183.84 W_ONCV_LDA-4.0.upf
O 15.9994 O_ONCV_LDA-3.0.upf

ATOMIC_POSITIONS crystal
W 0.2176269901	0.2800631276288771	-0.0009269837999999961	
W 0.75092699494843	0.7199368723711229	-0.03237296490000004	
W 0.2823730099	0.21993688796809602	0.4990730099	
W 0.74907300664843	0.7800631151350439	0.4676269901	
W 0.78237297604843	0.2800631276288771	0.5009269901	
W 0.24907300990000003	0.7199368723711229	0.5323730099	
W 0.7176270255484299	0.21993688796809602	0.0009270044999999498	
W 0.2509269901	0.7800631151350439	0.032372985599999994	
O 0.214395982	0.007830477859980865	-0.02582996760000001	
O 0.7758299517484301	-0.007830467396416439	-0.035603973899999974	
O 0.28560397390000003	0.4921695201097504	0.4741699793	
O 0.72417002284843	0.5078304673964165	0.46439599639999996	
O 0.7856039580484301	0.007830477859980865	0.5258300054	
O 0.22416996490000002	-0.007830467396416439	0.5356039883	
O 0.7143960165484301	0.4921695201097504	0.025829961300000044	
O 0.275829991	0.5078304673964165	0.03560396760000001	
O 0.5114569945999999	0.21161500269999997	0.45393371783077324	
O 0.5023489802	0.7746330218545968	0.5460662688693398	
O -0.01145696580000001	0.2883849703	0.9539337508307733	
O -0.002348966699999998	0.725367074954597	0.0460662814539793	
O 0.48854300539999995	0.21161500269999997	0.0460662814539793	
O 0.4976510197999999	0.7746330218545968	0.9539337508307733	
O 0.011456949600000016	0.2883849703	0.5460662688693398	
O 0.002348950500000002	0.725367074954597	0.45393371783077324	
O 0.7039337406822301	0.27463297389999997	0.7476510399484301	
O 0.2960662726176568	0.7883850461545969	0.26145699460000005	
O 0.7960662784209098	0.22536699909999997	0.2476510783	
O 0.20393373383077326	0.7116150506545968	0.7614570147484301	
O 0.2960662726176568	0.27463297389999997	0.75234901564843	
O 0.7039337406822301	0.7883850461545969	0.23854306390000005	
O 0.20393373383077326	0.22536699909999997	0.2523489802000001	
O 0.7960662784209098	0.7116150506545968	0.73854304084843	

K_POINTS automatic
6 6 6 0 0 0
