
&CONTROL
    calculation   = 'vc-relax'
    restart_mode  = 'from_scratch'
    prefix        = 'Landau_25'
    pseudo_dir    = '/cluster/scratch/mnoe/QE/pps'
    outdir        = './'
    forc_conv_thr = 1.0d-7
    etot_conv_thr = 1.0d-7

/
&SYSTEM
    ibrav       = 0
    nat         = 32
    ntyp        = 2
    ecutwfc     = 120
    occupations = 'smearing'
    degauss     = 7.35d-4
    tot_charge  = -0.0
/
&ELECTRONS
    conv_thr    = 1.0d-8
    diagonalization = 'david'
/


&IONS
ion_dynamics = 'bfgs'
/

&CELL
cell_dynamics = 'bfgs'
cell_dofree = 'all'
/
CELL_PARAMETERS angstrom
        7.3236460686         0.0000000000         0.0000000000
        0.0000000000         7.7495899200         0.0000000000
        0.0000000000         0.0000000000         7.3236460686

ATOMIC_SPECIES
W 183.84 W_ONCV_LDA-4.0.upf
O 15.9994 O_ONCV_LDA-3.0.upf

ATOMIC_POSITIONS crystal
W 0.25	0.27837508764739594	0.0	 0 0 0
W 0.7499999814753915	0.7216249123526041	0.0	 0 0 0
W 0.25	0.22162492851039203	0.5	 0 0 0
W 0.7499999814753915	0.778375092538825	0.5	 0 0 0
W 0.7499999814753915	0.27837508764739594	0.5	 0 0 0
W 0.25	0.7216249123526041	0.5	 0 0 0
W 0.7499999814753915	0.22162492851039203	0.0	 0 0 0
W 0.25	0.778375092538825	0.0	 0 0 0
O 0.25	0.007370605707770274	0.0	 0 0 0
O 0.7499999814753915	0.992629392978681	0.0	 0 0 0
O 0.25	0.49262939787011006	0.5	 0 0 0
O 0.7499999814753915	0.507370607021319	0.5	 0 0 0
O 0.7499999814753915	0.007370605707770274	0.5	 0 0 0
O 0.25	0.992629392978681	0.5	 0 0 0
O 0.7499999814753915	0.49262939787011006	0.0	 0 0 0
O 0.25	0.507370607021319	0.0	 0 0 0
O 0.5	0.25	0.458061307719713	 0 0 0
O 0.5	0.7500000023668205	0.5419386974872921	 0 0 0
O 0.0	0.25	0.9580613407197129	 0 0 0
O 0.0	0.7500000023668205	0.041938675862222066	 0 0 0
O 0.5	0.25	0.041938675862222066	 0 0 0
O 0.5	0.7500000023668205	0.9580613407197129	 0 0 0
O 0.0	0.25	0.5419386974872921	 0 0 0
O 0.0	0.7500000023668205	0.458061307719713	 0 0 0
O 0.7080613210373164	0.25	0.7499999814753915	 0 0 0
O 0.29193867375567845	0.7500000023668205	0.25	 0 0 0
O 0.7919387160119006	0.25	0.25	 0 0 0
O 0.20806132371971298	0.7500000023668205	0.7499999814753915	 0 0 0
O 0.29193867375567845	0.25	0.7499999814753915	 0 0 0
O 0.7080613210373164	0.7500000023668205	0.25	 0 0 0
O 0.20806132371971298	0.25	0.25	 0 0 0
O 0.7919387160119006	0.7500000023668205	0.7499999814753915	 0 0 0

K_POINTS automatic
6 6 6 0 0 0
