&CONTROL
    calculation   = 'scf'
    restart_mode  = 'from_scratch'
    prefix        = 'Landau_2'
    pseudo_dir    = '/cluster/scratch/mnoe/QE/pps'
    outdir        = './'
/
&SYSTEM
    ibrav       = 0
    nat         = 32
    ntyp        = 2
    ecutwfc     = 120
    occupations = 'smearing'
    degauss     = 7.35d-4
    tot_charge  = -0.84
/
&ELECTRONS
    conv_thr    = 1.0d-8
    diagonalization = 'david'
/

CELL_PARAMETERS angstrom
   7.338844531   0.000000000   0.000000000
   0.000000000   7.739408833   0.000000000
   0.000000000   0.000000000   7.338977866

ATOMIC_SPECIES
W 183.84 W_ONCV_LDA-4.0.upf
O 15.9994 O_ONCV_LDA-3.0.upf

ATOMIC_POSITIONS crystal
W        0.249080001	0.28253920228	0.00087	
W        0.750919966	0.7174607977199999	0.99913004	
W        0.250919999	0.21746081182	0.500869993	
W        0.749080034	0.7825391712800001	0.499130007	
W       0.750919966	0.28253920228	0.499130007	
W       0.249080001	0.7174607977199999	0.500869993	
W       0.749080034	0.21746081182	0.99913004	
W       0.250919999	0.7825391712800001	0.00087	
O        0.248289999	0.00960520006	0.00027	
O        0.751709969	0.99039482456	0.999729981	
O        0.251710001	0.4903947917	0.500270019	
O        0.748290031	0.50960517916	0.499729981	
O        0.751709969	0.00960520006	0.499729981	
O        0.248289999	0.99039482456	0.500270019	
O        0.748290031	0.4903947917	0.999729981	
O        0.251710001	0.50960517916	0.00027	
O    0.500249997	0.248249988	0.4530506064	
O    0.499750003	0.751749965	0.5469493645	
O    0.999750035	0.251749996	0.95305063652	
O    0.000249982	0.748250004	0.04694941224	
O   0.499750003	0.248249988	0.04694941224	
O   0.500249997	0.751749965	0.95305063652	
O   0.000249982	0.251749996	0.5469493645	
O   0.999750035	0.748250004	0.4530506064	
O   0.70305064138	0.249620007	0.749620007	
O   0.29694939648	0.750380009	0.250379977	
O   0.79694936252	0.250379978	0.249619958	
O   0.20305062246000002	0.749620022	0.750379993	
O   0.29694939648	0.249620007	0.750379993	
O   0.70305064138	0.750380009	0.249619958	
O   0.20305062246000002	0.250379978	0.250379977	
O   0.79694936252	0.749620022	0.749620007	

K_POINTS automatic
6 6 6 0 0 0
