
&CONTROL
    calculation   = 'vc-relax'
    restart_mode  = 'from_scratch'
    prefix        = 'Landau_34'
    pseudo_dir    = '/cluster/scratch/mnoe/QE/pps'
    outdir        = './'
    forc_conv_thr = 1.0d-7
    etot_conv_thr = 1.0d-7

/
&SYSTEM
    ibrav       = 0
    nat         = 32
    ntyp        = 2
    ecutwfc     = 120
    occupations = 'smearing'
    degauss     = 7.35d-4
    tot_charge  = -0.0
/
&ELECTRONS
    conv_thr    = 1.0d-8
    diagonalization = 'david'
/


&IONS
ion_dynamics = 'bfgs'
/

&CELL
cell_dynamics = 'bfgs'
cell_dofree = 'all'
/
CELL_PARAMETERS angstrom
        7.3236460686         0.0000000000         0.0000000000
        0.0000000000         7.7495899200         0.0000000000
        0.0000000000         0.0000000000         7.3236460686

ATOMIC_SPECIES
W 183.84 W_ONCV_LDA-4.0.upf
O 15.9994 O_ONCV_LDA-3.0.upf

ATOMIC_POSITIONS crystal
W 0.264739986	0.2629973358998531	-0.984490051	 0 0 0
W 0.7344899506261402	0.7370026641001469	-0.985259998	 0 0 0
W 0.235259998	0.23700268537351282	-0.48449000200000003	 0 0 0
W 0.7655098806261402	0.7629975303742067	-0.48525999799999997	 0 0 0
W 0.7352598976261402	0.2629973358998531	-0.515509998	 0 0 0
W 0.265509998	0.7370026641001469	-0.5147399859999999	 0 0 0
W 0.7647398686261402	0.23700268537351282	-1.0155099810000001	 0 0 0
W 0.234490002	0.7629975303742067	-1.0147399689999999	 0 0 0
O 0.281419995	0.003185782768227837	-0.968739998	 0 0 0
O 0.7187398976261402	0.996814098491081	-0.968580005	 0 0 0
O 0.218579989	0.4968142929654346	-0.468739998	 0 0 0
O 0.7812599336261402	0.503185901508919	-0.468579989	 0 0 0
O 0.7185799046261402	0.003185782768227837	-0.531260002	 0 0 0
O 0.281260002	0.996814098491081	-0.531419995	 0 0 0
O 0.7814198616261402	0.4968142929654346	-1.031260034	 0 0 0
O 0.218739998	0.503185901508919	-1.031419962	 0 0 0
O 0.493449915	0.287519985	-0.5044180882880855	 0 0 0
O 0.504289993	0.7234401041004938	-0.49558168869082875	 0 0 0
O 0.006550014	0.21248	-1.0044180882880855	 0 0 0
O 0.995710007	0.7765600841004937	-0.9955820553661693	 0 0 0
O 0.506550019	0.287519985	-0.9955820553661693	 0 0 0
O 0.495709974	0.7234401041004938	-1.0044180882880855	 0 0 0
O 0.993449981	0.21248	-0.49558168869082875	 0 0 0
O 0.004290015	0.7765600841004937	-0.5044180882880855	 0 0 0
O 0.7455817730646885	0.223439994	-0.2542901153738598	 0 0 0
O 0.2544179879142254	0.7124800781004937	-0.756550019	 0 0 0
O 0.7544183956830312	0.276560021	-0.754289993	 0 0 0
O 0.24558189571191444	0.7875201101004937	-0.2565501143738598	 0 0 0
O 0.2544179879142254	0.223439994	-1.24571010737386	 0 0 0
O 0.7455817730646885	0.7124800781004937	-0.743449915	 0 0 0
O 0.24558189571191444	0.276560021	-0.7457099739999999	 0 0 0
O 0.7544183956830312	0.7875201101004937	-1.2434500813738598	 0 0 0

K_POINTS automatic
6 6 6 0 0 0
