
&CONTROL
    calculation   = 'vc-relax'
    restart_mode  = 'from_scratch'
    prefix        = 'Landau_8'
    pseudo_dir    = '/cluster/scratch/mnoe/QE/pps'
    outdir        = './'
    forc_conv_thr = 1.0d-7
    etot_conv_thr = 1.0d-7

/
&SYSTEM
    ibrav       = 0
    nat         = 32
    ntyp        = 2
    ecutwfc     = 120
    occupations = 'smearing'
    degauss     = 7.35d-4
    tot_charge  = -0.0
/
&ELECTRONS
    conv_thr    = 1.0d-8
    diagonalization = 'david'
/


&IONS
ion_dynamics = 'bfgs'
/

&CELL
cell_dynamics = 'bfgs'
cell_dofree = 'all'
/
CELL_PARAMETERS angstrom
        7.3236460686         0.0000000000         0.0000000000
        0.0000000000         7.7495899200         0.0000000000
        0.0000000000         0.0000000000         7.3236460686

ATOMIC_SPECIES
W 183.84 W_ONCV_LDA-4.0.upf
O 15.9994 O_ONCV_LDA-3.0.upf

ATOMIC_POSITIONS crystal
W 0.2463	0.2810646553663811	0.00349	 0 0 0
W 0.7537000447722062	0.718935344633619	0.996510002	 0 0 0
W 0.253700016	0.21893535989785606	0.503489965	 0 0 0
W 0.7462999467722062	0.7810646325577316	0.496510002	 0 0 0
W 0.7537000447722062	0.2810646553663811	0.496510002	 0 0 0
W 0.2463	0.718935344633619	0.503489965	 0 0 0
W 0.7462999467722062	0.21893535989785606	0.996510002	 0 0 0
W 0.253700016	0.7810646325577316	0.00349	 0 0 0
O 0.243180001	0.00810332371742343	0.00109	 0 0 0
O 0.7568199457722062	0.9918966937335972	0.998910027	 0 0 0
O 0.256819999	0.4918966709249477	0.501090006	 0 0 0
O 0.7431800457722062	0.5081033062664028	0.498909994	 0 0 0
O 0.7568199457722062	0.00810332371742343	0.498909994	 0 0 0
O 0.243180001	0.9918966937335972	0.501090006	 0 0 0
O 0.7431800457722062	0.4918966709249477	0.998910027	 0 0 0
O 0.256819999	0.5081033062664028	0.00109	 0 0 0
O 0.501010016	0.243	0.45148478545466514	 0 0 0
O 0.498989984	0.7569999729635567	0.5485151902651596	 0 0 0
O 0.998989984	0.257	0.9514848184546651	 0 0 0
O 0.001009941	0.7430000039635567	0.04851522314669569	 0 0 0
O 0.498989984	0.243	0.04851522314669569	 0 0 0
O 0.501010016	0.7569999729635567	0.9514848184546651	 0 0 0
O 0.001009941	0.257	0.5485151902651596	 0 0 0
O 0.998989984	0.7430000039635567	0.45148478545466514	 0 0 0
O 0.7014848139626342	0.248469997	0.7484699967722063	 0 0 0
O 0.2985152103175411	0.7515299909635567	0.251529999	 0 0 0
O 0.7985151944929534	0.251529987	0.248470066	 0 0 0
O 0.20148480145466513	0.7484699859635567	0.7515299947722062	 0 0 0
O 0.2985152103175411	0.248469997	0.7515299947722062	 0 0 0
O 0.7014848139626342	0.7515299909635567	0.248470066	 0 0 0
O 0.20148480145466513	0.251529987	0.251529999	 0 0 0
O 0.7985151944929534	0.7484699859635567	0.7484699967722063	 0 0 0

K_POINTS automatic
6 6 6 0 0 0
