&CONTROL
    calculation   = 'scf'
    restart_mode  = 'from_scratch'
    prefix        = 'Landau_16'
    pseudo_dir    = '/cluster/scratch/mnoe/QE/pps'
    outdir        = './'
/
&SYSTEM
    ibrav       = 0
    nat         = 16
    ntyp        = 2
    ecutwfc     = 120
    occupations = 'smearing'
    degauss     = 7.35d-4
    tot_charge  = -0.26
/
&ELECTRONS
    conv_thr    = 1.0d-8
    diagonalization = 'david'
/

CELL_PARAMETERS angstrom
   5.242486088   0.000000000   0.000000000
   0.000000000   5.242486088   0.000000000
   0.000000000   0.000000000   7.680071053

ATOMIC_SPECIES
W 183.84 W_ONCV_LDA-4.0.upf
O 15.9994 O_ONCV_LDA-3.0.upf

ATOMIC_POSITIONS crystal
W       0.24999999999995923	0.2499999999999274	0.21268805028759058	
W       0.7500000229999643	0.7500000229999866	0.7873119647108626	
W       0.7500000230000119	0.7500000230000309	0.2873119647124085	
W       0.2499999999999518	0.2500000000000229	0.7126880352891375	
O      0.2499999999998269	0.24999999999994515	0.48139055513171003	
O      0.7500000229999952	0.7500000230002064	0.518609444870668	
O      0.750000022999918	0.7500000230000121	0.01860945786829321	
O      0.24999999999985187	0.2500000000000344	0.9813905551293267	
O       0.4774965878585386	0.5225033661414152	0.2500000000000268	
O       0.5225034121585399	0.47749663384147945	0.7499999999999991	
O       0.022503395141632153	0.9774966338582796	0.2500000000000026	
O       0.9774965418416937	0.022503429158370343	0.7500000000001307	
O       0.9774966338583827	0.4774965878583589	0.2500000000001005	
O       0.022503429158527183	0.5225034121585246	0.7499999999999841	
O       0.5225033661415409	0.022503395141573224	0.24999999999992417	
O       0.47749663384170477	0.9774965418416628	0.7499999999998369	

K_POINTS automatic
9 9 6 0 0 0
