
&CONTROL
    calculation   = 'vc-relax'
    restart_mode  = 'from_scratch'
    prefix        = 'Landau_13'
    pseudo_dir    = '/cluster/scratch/mnoe/QE/pps'
    outdir        = './'
    forc_conv_thr = 1.0d-7
    etot_conv_thr = 1.0d-7

/
&SYSTEM
    ibrav       = 0
    nat         = 32
    ntyp        = 2
    ecutwfc     = 120
    occupations = 'smearing'
    degauss     = 7.35d-4
    tot_charge  = -0.0
/
&ELECTRONS
    conv_thr    = 1.0d-8
    diagonalization = 'david'
/


&IONS
ion_dynamics = 'bfgs'
/

&CELL
cell_dynamics = 'bfgs'
cell_dofree = 'all'
/
CELL_PARAMETERS angstrom
        7.3236460686         0.0000000000         0.0000000000
        0.0000000000         7.3236460686         0.0000000000
        0.0000000000         0.0000000000         7.7495899200

ATOMIC_SPECIES
W 183.84 W_ONCV_LDA-4.0.upf
O 15.9994 O_ONCV_LDA-3.0.upf

ATOMIC_POSITIONS crystal
W 0.244359995         0.244069995         0.218119991 0 0 0
W 0.755640021         0.755929989         0.218119991 0 0 0
W 0.244069995         0.755640021         0.781880024 0 0 0
W 0.755929989         0.244359995         0.781880024 0 0 0
W 0.255640005         0.744069979         0.281880024 0 0 0
W 0.744359946         0.255930005         0.281880024 0 0 0
W 0.255930005         0.255640005         0.718119976 0 0 0
W 0.744069979         0.744359946         0.718119976 0 0 0
O 0.237990009         0.238049998         0.491670026 0 0 0
O 0.762009991         0.761950018         0.491670026 0 0 0
O 0.238049998         0.762009991         0.508329974 0 0 0
O 0.761950018         0.237990009         0.508329974 0 0 0
O 0.262009975         0.738050014         0.008329987 0 0 0
O 0.737990041         0.261950018         0.008329987 0 0 0
O 0.261950018         0.262009975         0.991670026 0 0 0
O 0.738050014         0.737990041         0.991670026 0 0 0
O 0.199410008         0.498360021         0.260160008 0 0 0
O 0.800589976         0.501639947         0.260160008 0 0 0
O 0.498360021         0.800589976         0.739840053 0 0 0
O 0.501639947         0.199410008         0.739840053 0 0 0
O 0.300589976         0.998360021         0.239840007 0 0 0
O 0.699409992         0.001639992         0.239840007 0 0 0
O 0.001639992         0.300589976         0.760159947 0 0 0
O 0.998360021         0.699409992         0.760159947 0 0 0
O 0.997500016         0.199410008         0.235650008 0 0 0
O 0.002499998         0.800589976         0.235650008 0 0 0
O 0.199410008         0.002499998         0.764349977 0 0 0
O 0.800589976         0.997500016         0.764349977 0 0 0
O 0.502499984         0.699409992         0.264350007 0 0 0
O 0.497499951         0.300589976         0.264350007 0 0 0
O 0.300589976         0.502499984         0.735650023 0 0 0
O 0.699409992         0.497499951         0.735650023 0 0 0

K_POINTS automatic
6 6 6 0 0 0
