
&CONTROL
    calculation   = 'vc-relax'
    restart_mode  = 'from_scratch'
    prefix        = 'Landau_13'
    pseudo_dir    = '/cluster/scratch/mnoe/QE/pps'
    outdir        = './'
    forc_conv_thr = 1.0d-7
    etot_conv_thr = 1.0d-7

/
&SYSTEM
    ibrav       = 0
    nat         = 32
    ntyp        = 2
    ecutwfc     = 120
    occupations = 'smearing'
    degauss     = 7.35d-4
    tot_charge  = -0.0
/
&ELECTRONS
    conv_thr    = 1.0d-8
    diagonalization = 'david'
/


&IONS
ion_dynamics = 'bfgs'
/

&CELL
cell_dynamics = 'bfgs'
cell_dofree = 'all'
/
CELL_PARAMETERS angstrom
        7.3236460686         0.0000000000         0.0000000000
        0.0000000000         7.7495899200         0.0000000000
        0.0000000000         0.0000000000         7.3236460686

ATOMIC_SPECIES
W 183.84 W_ONCV_LDA-4.0.upf
O 15.9994 O_ONCV_LDA-3.0.upf

ATOMIC_POSITIONS crystal
0.261689995	0.281860003	0.25033002399999993	 0 0 0
-0.25032998799999995	0.718139997	-0.7383099400000002	 0 0 0
0.238309973	0.218140012	0.750329955	 0 0 0
0.7503300239999999	0.781859972	0.761689995	 0 0 0
0.738309976	0.281860003	0.749670013	 0 0 0
0.250329955	0.718139997	0.738309973	 0 0 0
-0.23830994000000005	0.218140012	-0.7503299880000001	 0 0 0
0.24967001300000002	0.781859972	0.23830997600000003	 0 0 0
0.262859991	0.00832	0.25931998900000003	 0 0 0
-0.25931998700000003	0.991680023	-0.7371400090000001	 0 0 0
0.23713999300000005	0.491679992	0.759319939	 0 0 0
0.759319989	0.508319977	0.762859975	 0 0 0
0.737140011	0.00832	0.740680013	 0 0 0
0.25931995500000005	0.991680023	0.737139977	 0 0 0
-0.23714000899999998	0.491679992	-0.7593199870000001	 0 0 0
0.24068002900000002	0.508319977	0.23714001099999998	 0 0 0
0.495869985	0.263859999	0.6995400039999999	 0 0 0
0.49914999700000007	0.7410999429999999	0.800459963	 0 0 0
-0.995869919	0.236139971	1.199540037	 0 0 0
0.0008499610000000256	0.7588999059999999	0.300460012	 0 0 0
0.504130015	0.263859999	0.300460012	 0 0 0
0.5008500029999999	0.7410999429999999	1.199540037	 0 0 0
-0.004130057999999976	0.236139971	0.800459963	 0 0 0
-1.000849938	0.7588999059999999	0.6995400039999999	 0 0 0
0.6995400369999999	0.24109997300000002	2.00084997	 0 0 0
0.300459996	0.7361398799999999	0.495870017	 0 0 0
0.800459963	0.258899997	0.500850036	 0 0 0
0.19954001999999996	0.763859969	1.995869952	 0 0 0
0.300459996	0.24109997300000002	0.9991500720000001	 0 0 0
0.699540037	0.7361398799999999	0.504130048	 0 0 0
0.19954002	0.258899997	0.49915002900000005	 0 0 0
0.800459963	0.763859969	1.0041300899999999	 0 0 0

K_POINTS automatic
6 6 6 0 0 0
