
&CONTROL
    calculation   = 'vc-relax'
    restart_mode  = 'from_scratch'
    prefix        = 'Landau_15'
    pseudo_dir    = '/cluster/scratch/mnoe/QE/pps'
    outdir        = './'
    forc_conv_thr = 1.0d-7
    etot_conv_thr = 1.0d-7

/
&SYSTEM
    ibrav       = 0
    nat         = 32
    ntyp        = 2
    ecutwfc     = 120
    occupations = 'smearing'
    degauss     = 7.35d-4
    tot_charge  = -0.0
/
&ELECTRONS
    conv_thr    = 1.0d-8
    diagonalization = 'david'
/


&IONS
ion_dynamics = 'bfgs'
/

&CELL
cell_dynamics = 'bfgs'
cell_dofree = 'all'
/
CELL_PARAMETERS angstrom
        7.3236460686         0.0000000000         0.0000000000
        0.0000000000         7.7495899200         0.0000000000
        0.0000000000         0.0000000000         7.3236460686

ATOMIC_SPECIES
W 183.84 W_ONCV_LDA-4.0.upf
O 15.9994 O_ONCV_LDA-3.0.upf

ATOMIC_POSITIONS crystal
W 0.243059999	0.27814572152431216	0.00655	 0 0 0
W 0.7569399972561602	0.7218542784756878	0.993450003	 0 0 0
W 0.256940001	0.22185429470967777	0.506550029	 0 0 0
W 0.7430599632561602	0.7781457287780017	0.493449971	 0 0 0
W 0.7569399972561602	0.27814572152431216	0.493449971	 0 0 0
W 0.243059999	0.7218542784756878	0.506550029	 0 0 0
W 0.7430599632561602	0.22185429470967777	0.993450003	 0 0 0
W 0.256940001	0.7781457287780017	0.00655	 0 0 0
O 0.23720001	0.00730811957365976	0.00204	 0 0 0
O 0.7627999372561602	0.9926918775125505	0.997959979	 0 0 0
O 0.262799974	0.4926918847662401	0.502040021	 0 0 0
O 0.7372000232561602	0.5073081224874495	0.497960012	 0 0 0
O 0.7627999372561602	0.00730811957365976	0.497960012	 0 0 0
O 0.23720001	0.9926918775125505	0.502040021	 0 0 0
O 0.7372000232561602	0.4926918847662401	0.997959979	 0 0 0
O 0.262799974	0.5073081224874495	0.00204	 0 0 0
O 0.50190003	0.236870006	0.4586221530201159	 0 0 0
O 0.49809997	0.7631300275098498	0.5413778547015535	 0 0 0
O 0.99809997	0.263130009	0.958622186020116	 0 0 0
O 0.001899958	0.7368700405098497	0.04137782842816448	 0 0 0
O 0.49809997	0.236870006	0.04137782842816448	 0 0 0
O 0.50190003	0.7631300275098498	0.958622186020116	 0 0 0
O 0.001899958	0.263130009	0.5413778547015535	 0 0 0
O 0.99809997	0.7368700405098497	0.4586221530201159	 0 0 0
O 0.7086221650422861	0.247130007	0.7471200162561602	 0 0 0
O 0.2913778272360443	0.7528699965098498	0.252879981	 0 0 0
O 0.7913778744453933	0.252869993	0.247120019	 0 0 0
O 0.2086221690201159	0.7471300715098498	0.7528799442561602	 0 0 0
O 0.2913778272360443	0.247130007	0.7528799442561602	 0 0 0
O 0.7086221650422861	0.7528699965098498	0.247120019	 0 0 0
O 0.2086221690201159	0.252869993	0.252879981	 0 0 0
O 0.7913778744453933	0.7471300715098498	0.7471200162561602	 0 0 0

K_POINTS automatic
6 6 6 0 0 0
