
&CONTROL
    calculation   = 'vc-relax'
    restart_mode  = 'from_scratch'
    prefix        = 'Landau_9'
    pseudo_dir    = '/cluster/scratch/mnoe/QE/pps'
    outdir        = './'
    forc_conv_thr = 1.0d-7
    etot_conv_thr = 1.0d-7

/
&SYSTEM
    ibrav       = 0
    nat         = 32
    ntyp        = 2
    ecutwfc     = 120
    occupations = 'smearing'
    degauss     = 7.35d-4
    tot_charge  = -0.0
/
&ELECTRONS
    conv_thr    = 1.0d-8
    diagonalization = 'david'
/


&IONS
ion_dynamics = 'bfgs'
/

&CELL
cell_dynamics = 'bfgs'
cell_dofree = 'all'
/
CELL_PARAMETERS angstrom
        7.3236460686         0.0000000000         0.0000000000
        0.0000000000         7.7495899200         0.0000000000
        0.0000000000         0.0000000000         7.3236460686

ATOMIC_SPECIES
W 183.84 W_ONCV_LDA-4.0.upf
O 15.9994 O_ONCV_LDA-3.0.upf

ATOMIC_POSITIONS crystal
W 0.2468816591196644	0.2783256297287118	0.002944725313394819	 0 0 0
W 0.7531183192273234	0.7216743702712882	-0.002944721436538598	 0 0 0
W 0.25311834088033563	0.22167438644550752	0.5029447269989845	 0 0 0
W 0.746881643197657	0.778325635129512	0.49705527300101554	 0 0 0
W 0.7531183192273234	0.2783256297287118	0.49705527300101554	 0 0 0
W 0.2468816591196644	0.7216743702712882	0.5029447269989845	 0 0 0
W 0.746881643197657	0.22167438644550752	-0.002944721436538598	 0 0 0
W 0.25311834088033563	0.778325635129512	0.002944725313394819	 0 0 0
O 0.24424708028193048	0.00735713190397495	0.0009152751881201305	 0 0 0
O 0.7557528926711704	-0.0073571335625815274	-0.000915276368032889	 0 0 0
O 0.25575291702112607	0.4926428718382187	0.500915270805587	 0 0 0
O 0.74424706975381	0.5073571335625815	0.4990847236319671	 0 0 0
O 0.7557528926711704	0.00735713190397495	0.4990847236319671	 0 0 0
O 0.24424708028193048	-0.0073571335625815274	0.500915270805587	 0 0 0
O 0.74424706975381	0.4926428718382187	-0.000915276368032889	 0 0 0
O 0.25575291702112607	0.5073571335625815	0.0009152751881201305	 0 0 0
O 0.5008529097189851	0.24409875075123194	0.4581822420621031	 0 0 0
O 0.49914709028101484	0.755901254390443	0.5418177636871357	 0 0 0
O -0.0008529152814310474	0.25590124419199906	0.9581822750621032	 0 0 0
O 0.0008529012910368249	0.7440987609496759	0.04181774105975472	 0 0 0
O 0.49914709028101484	0.24409875075123194	0.04181774105975472	 0 0 0
O 0.5008529097189851	0.755901254390443	0.9581822750621032	 0 0 0
O 0.0008529012910368249	0.25590124419199906	0.5418177636871357	 0 0 0
O -0.0008529152814310474	0.7440987609496759	0.4581822420621031	 0 0 0
O 0.708182255100374	0.24871220983302259	0.7487071362992253	 0 0 0
O 0.291817739150387	0.7512878005339804	0.251292844913265	 0 0 0
O 0.7918177824746455	0.25128779016697744	0.24870716604306786	 0 0 0
O 0.20818225806210316	0.7487122149746975	0.7512928261257552	 0 0 0
O 0.291817739150387	0.24871220983302259	0.7512928261257552	 0 0 0
O 0.708182255100374	0.7512878005339804	0.24870716604306786	 0 0 0
O 0.20818225806210316	0.25128779016697744	0.251292844913265	 0 0 0
O 0.7918177824746455	0.7487122149746975	0.7487071362992253	 0 0 0

K_POINTS automatic
6 6 6 0 0 0
