
&CONTROL
    calculation   = 'vc-relax'
    restart_mode  = 'from_scratch'
    prefix        = 'Landau_21'
    pseudo_dir    = '/cluster/scratch/mnoe/QE/pps'
    outdir        = './'
    forc_conv_thr = 1.0d-7
    etot_conv_thr = 1.0d-7

/
&SYSTEM
    ibrav       = 0
    nat         = 32
    ntyp        = 2
    ecutwfc     = 120
    occupations = 'smearing'
    degauss     = 7.35d-4
    tot_charge  = -0.0
/
&ELECTRONS
    conv_thr    = 1.0d-8
    diagonalization = 'david'
/


&IONS
ion_dynamics = 'bfgs'
/

&CELL
cell_dynamics = 'bfgs'
cell_dofree = 'all'
/
CELL_PARAMETERS angstrom
        7.3236460686         0.0000000000         0.0000000000
        0.0000000000         7.7495899200         0.0000000000
        0.0000000000         0.0000000000         7.3236460686

ATOMIC_SPECIES
W 183.84 W_ONCV_LDA-4.0.upf
O 15.9994 O_ONCV_LDA-3.0.upf

ATOMIC_POSITIONS crystal
W 0.259110009	0.2796262024944058	-0.990419958	 0 0 0
W 0.7404199460194619	0.7203737975055943	-0.99089004	 0 0 0
W 0.240889991	0.22037381325437783	-0.490419991	 0 0 0
W 0.7595799970194619	0.7796262257066984	-0.49088999099999997	 0 0 0
W 0.7408900280194619	0.2796262024944058	-0.509580009	 0 0 0
W 0.259580009	0.7203737975055943	-0.509110009	 0 0 0
W 0.7591099800194618	0.22037381325437783	-1.009580009	 0 0 0
W 0.240419991	0.7796262257066984	-1.009109992	 0 0 0
O 0.269400008	0.007715979181555615	-0.980690001	 0 0 0
O 0.7306899890194619	0.9922840180939881	-0.980600008	 0 0 0
O 0.230599992	0.4922840413062807	-0.48069000100000003	 0 0 0
O 0.7693099550194619	0.5077159819060119	-0.48059999200000003	 0 0 0
O 0.7305999960194619	0.007715979181555615	-0.5193099990000001	 0 0 0
O 0.269309999	0.9922840180939881	-0.5194000080000001	 0 0 0
O 0.7694000120194618	0.4922840413062807	-1.0193099669999999	 0 0 0
O 0.230690001	0.5077159819060119	-1.0194000239999998	 0 0 0
O 0.495959992	0.273180007	-0.5450789389629488	 0 0 0
O 0.502650014	0.7336000292317545	-0.4549210203271914	 0 0 0
O 0.004040003	0.226820008	-1.0450789389629487	 0 0 0
O 0.997349986	0.7663999932317546	-0.9549210500029928	 0 0 0
O 0.504040008	0.273180007	-0.9549210500029928	 0 0 0
O 0.497350019	0.7336000292317545	-1.0450789389629487	 0 0 0
O 0.995959992	0.226820008	-0.4549210203271914	 0 0 0
O 0.002649993	0.7663999932317546	-0.5450789389629488	 0 0 0
O 0.7049210163077294	0.233599987	-0.2526500049805381	 0 0 0
O 0.29507892698241067	0.7268200042317545	-0.754040008	 0 0 0
O 0.7950789756533467	0.266400013	-0.752650014	 0 0 0
O 0.20492104503705116	0.7731800182317545	-0.2540400149805381	 0 0 0
O 0.29507892698241067	0.233599987	-1.2473499979805382	 0 0 0
O 0.7049210163077294	0.7268200042317545	-0.745959992	 0 0 0
O 0.20492104503705116	0.266400013	-0.747350019	 0 0 0
O 0.7950789756533467	0.7731800182317545	-1.245960003980538	 0 0 0

K_POINTS automatic
6 6 6 0 0 0
