
&CONTROL
    calculation   = 'vc-relax'
    restart_mode  = 'from_scratch'
    prefix        = 'Landau_30'
    pseudo_dir    = '/cluster/scratch/mnoe/QE/pps'
    outdir        = './'
    forc_conv_thr = 1.0d-7
    etot_conv_thr = 1.0d-7

/
&SYSTEM
    ibrav       = 0
    nat         = 32
    ntyp        = 2
    ecutwfc     = 120
    occupations = 'smearing'
    degauss     = 7.35d-4
    tot_charge  = -0.0
/
&ELECTRONS
    conv_thr    = 1.0d-8
    diagonalization = 'david'
/


&IONS
ion_dynamics = 'bfgs'
/

&CELL
cell_dynamics = 'bfgs'
cell_dofree = 'all'
/
CELL_PARAMETERS angstrom
        7.3236460686         0.0000000000         0.0000000000
        0.0000000000         7.3236460686         0.0000000000
        0.0000000000         0.0000000000         7.7495899200

ATOMIC_SPECIES
W 183.84 W_ONCV_LDA-4.0.upf
O 15.9994 O_ONCV_LDA-3.0.upf

ATOMIC_POSITIONS crystal
W 0.236990002         0.236320010         0.218119991 0 0 0
W 0.763009998         0.763679990         0.218119991 0 0 0
W 0.236320010         0.763009998         0.781880024 0 0 0
W 0.763679990         0.236990002         0.781880024 0 0 0
W 0.263009998         0.736320043         0.281880024 0 0 0
W 0.736989970         0.263679974         0.281880024 0 0 0
W 0.263679974         0.263009998         0.718119976 0 0 0
W 0.736320043         0.736989970         0.718119976 0 0 0
O 0.222280003         0.222420005         0.491670026 0 0 0
O 0.777719997         0.777579995         0.491670026 0 0 0
O 0.222420005         0.777719997         0.508329974 0 0 0
O 0.777579995         0.222280003         0.508329974 0 0 0
O 0.277719997         0.722419973         0.008329987 0 0 0
O 0.722280036         0.277579995         0.008329987 0 0 0
O 0.277579995         0.277719997         0.991670026 0 0 0
O 0.722419973         0.722280036         0.991670026 0 0 0
O 0.199410008         0.496220006         0.273430005 0 0 0
O 0.800589976         0.503779994         0.273430005 0 0 0
O 0.496220006         0.800589976         0.726569995 0 0 0
O 0.503779994         0.199410008         0.726569995 0 0 0
O 0.300589976         0.996220006         0.226570011 0 0 0
O 0.699409992         0.003780007         0.226570011 0 0 0
O 0.003780007         0.300589976         0.773430005 0 0 0
O 0.996220006         0.699409992         0.773430005 0 0 0
O 0.994219993         0.199410008         0.216890000 0 0 0
O 0.005779981         0.800589976         0.216890000 0 0 0
O 0.199410008         0.005779981         0.783110015 0 0 0
O 0.800589976         0.994219993         0.783110015 0 0 0
O 0.505779975         0.699409992         0.283109984 0 0 0
O 0.494220025         0.300589976         0.283109984 0 0 0
O 0.300589976         0.505779975         0.716889985 0 0 0
O 0.699409992         0.494220025         0.716889985 0 0 0

K_POINTS automatic
6 6 6 0 0 0
