&CONTROL
    calculation   = 'scf'
    restart_mode  = 'from_scratch'
    prefix        = 'Landau_4'
    pseudo_dir    = '/cluster/scratch/mnoe/QE/pps'
    outdir        = './'
/
&SYSTEM
    ibrav       = 0
    nat         = 32
    ntyp        = 2
    ecutwfc     = 120
    occupations = 'smearing'
    degauss     = 7.35d-4
    tot_charge  = -0.10
/
&ELECTRONS
    conv_thr    = 1.0d-8
    diagonalization = 'david'
/

CELL_PARAMETERS angstrom
   7.323843046   0.000000000   0.000000000
   0.000000000   7.746371440   0.000000000
   0.000000000   0.000000000   7.323843046

ATOMIC_SPECIES
W 183.84 W_ONCV_LDA-4.0.upf
O 15.9994 O_ONCV_LDA-3.0.upf

ATOMIC_POSITIONS crystal
W 0.25359997200000006	0.281860003	0.25010002400000003	
W -0.2501000109999999	0.718139997	-0.746399963	
W 0.24640001199999995	0.218140012	0.750100028	
W 0.750100024	0.781859972	0.753599988	
W 0.7463999760000001	0.281860003	0.749899988	
W 0.250100012	0.718139997	0.7464000279999999	
W -0.2463999629999999	0.218140012	-0.750100011	
W 0.24989997200000003	0.781859972	0.24639997600000002	
O 0.253949965	0.00832	0.25286997499999997	
O -0.25286993699999993	0.991680023	-0.7460499870000001	
O 0.24605001899999995	0.491679992	0.752869969	
O 0.752869975	0.508319977	0.753949948	
O 0.7460500250000001	0.00832	0.7471299809999999	
O 0.252869986	0.991680023	0.7460500019999999	
O -0.24604998700000003	0.491679992	-0.752869937	
O 0.24712999799999996	0.508319977	0.24605002500000006	
O 0.49872006300000016	0.254259994	0.6995400039999999	
O 0.49974004100000013	0.7472599489999999	0.800459963	
O -0.9987200629999999	0.245739991	1.199540037	
O 0.00026000400000003067	0.7527398989999999	0.300460012	
O 0.501279937	0.254259994	0.300460012	
O 0.500259959	0.7472599489999999	1.199540037	
O -0.0012799579999999196	0.245739991	0.800459963	
O -1.0002600249999998	0.7527398989999999	0.6995400039999999	
O 0.6995400369999999	0.24726001000000003	2.0002599919999997	
O 0.300459996	0.7457399139999998	0.4987200300000001	
O 0.800459963	0.252739975	0.500259992	
O 0.19954001999999996	0.754259934	1.998720096	
O 0.300459996	0.24726001000000003	0.9997400290000001	
O 0.699540037	0.7457399139999998	0.50127997	
O 0.19954002	0.252739975	0.49974000800000007	
O 0.800459963	0.754259934	1.001279925	

K_POINTS automatic
6 6 6 0 0 0
