
&CONTROL
    calculation   = 'vc-relax'
    restart_mode  = 'from_scratch'
    prefix        = 'Landau_30'
    pseudo_dir    = '/cluster/scratch/mnoe/QE/pps'
    outdir        = './'
    forc_conv_thr = 1.0d-7
    etot_conv_thr = 1.0d-7

/
&SYSTEM
    ibrav       = 0
    nat         = 32
    ntyp        = 2
    ecutwfc     = 120
    occupations = 'smearing'
    degauss     = 7.35d-4
    tot_charge  = -0.0
/
&ELECTRONS
    conv_thr    = 1.0d-8
    diagonalization = 'david'
/


&IONS
ion_dynamics = 'bfgs'
/

&CELL
cell_dynamics = 'bfgs'
cell_dofree = 'all'
/
CELL_PARAMETERS angstrom
        7.3236460686         0.0000000000         0.0000000000
        0.0000000000         7.7495899200         0.0000000000
        0.0000000000         0.0000000000         7.3236460686

ATOMIC_SPECIES
W 183.84 W_ONCV_LDA-4.0.upf
O 15.9994 O_ONCV_LDA-3.0.upf

ATOMIC_POSITIONS crystal
W 0.236129994	0.28716497639179156	0.0131	 0 0 0
W 0.763870006	0.7128350236082084	0.986899942	 0 0 0
W 0.263870006	0.21283503157864261	0.513100026	 0 0 0
W 0.736129994	0.7871649453917916	0.486900007	 0 0 0
W 0.763870006	0.28716497639179156	0.486900007	 0 0 0
W 0.236129994	0.7128350236082084	0.513100026	 0 0 0
W 0.736129994	0.21283503157864261	0.986899942	 0 0 0
W 0.263870006	0.7871649453917916	0.0131	 0 0 0
O 0.224409998	0.018358220478427043	0.00408	 0 0 0
O 0.775590018	0.9816418151747914	0.995920023	 0 0 0
O 0.275590018	0.4816417696470221	0.504080009	 0 0 0
O 0.724409982	0.5183582138807473	0.495919991	 0 0 0
O 0.775590018	0.018358220478427043	0.495919991	 0 0 0
O 0.224409998	0.9816418151747914	0.504080009	 0 0 0
O 0.724409982	0.4816417696470221	0.995920023	 0 0 0
O 0.275590018	0.5183582138807473	0.00408	 0 0 0
O 0.503790033	0.223739997	0.47696001587215564	 0 0 0
O 0.496209967	0.776260034	0.5230399815892963	 0 0 0
O 0.996209967	0.276260003	0.976960026377545	 0 0 0
O 0.003790021	0.723739997	0.023040020747904146	 0 0 0
O 0.496209967	0.223739997	0.023040020747904146	 0 0 0
O 0.503790033	0.776260034	0.976960026377545	 0 0 0
O 0.003790021	0.276260003	0.5230399815892963	 0 0 0
O 0.996209967	0.723739997	0.47696001587215564	 0 0 0
O 0.7269600643372005	0.244269997	0.744249968	 0 0 0
O 0.27304000662245503	0.755730003	0.255749999	 0 0 0
O 0.7730399661242514	0.255730003	0.244250066	 0 0 0
O 0.22696003234079337	0.744269967	0.755750032	 0 0 0
O 0.27304000662245503	0.244269997	0.755750032	 0 0 0
O 0.7269600643372005	0.755730003	0.244250066	 0 0 0
O 0.22696003234079337	0.255730003	0.255749999	 0 0 0
O 0.7730399661242514	0.744269967	0.744249968	 0 0 0

K_POINTS automatic
6 6 6 0 0 0
