
&CONTROL
    calculation   = 'vc-relax'
    restart_mode  = 'from_scratch'
    prefix        = 'Landau_29'
    pseudo_dir    = '/cluster/scratch/mnoe/QE/pps'
    outdir        = './'
    forc_conv_thr = 1.0d-7
    etot_conv_thr = 1.0d-7

/
&SYSTEM
    ibrav       = 0
    nat         = 32
    ntyp        = 2
    ecutwfc     = 120
    occupations = 'smearing'
    degauss     = 7.35d-4
    tot_charge  = -0.0
/
&ELECTRONS
    conv_thr    = 1.0d-8
    diagonalization = 'david'
/


&IONS
ion_dynamics = 'bfgs'
/

&CELL
cell_dynamics = 'bfgs'
cell_dofree = 'all'
/
CELL_PARAMETERS angstrom
        7.3236460686         0.0000000000         0.0000000000
        0.0000000000         7.7495899200         0.0000000000
        0.0000000000         0.0000000000         7.3236460686

ATOMIC_SPECIES
W 183.84 W_ONCV_LDA-4.0.upf
O 15.9994 O_ONCV_LDA-3.0.upf

ATOMIC_POSITIONS crystal
0.236589993	0.28448459881774	0.01267	 0 0 0
0.763409991	0.71551540118226	0.987330006	 0 0 0
0.263410007	0.215515412704435	0.512669994	 0 0 0
0.736590009	0.78448456781774	0.487330006	 0 0 0
0.763409991	0.28448459881774	0.487330006	 0 0 0
0.236589993	0.71551540118226	0.512669994	 0 0 0
0.736590009	0.215515412704435	0.987330006	 0 0 0
0.263410007	0.78448456781774	0.01267	 0 0 0
0.225260002	0.013286334331854999	0.00394	 0 0 0
0.774739982	0.98671369492823	0.996060014	 0 0 0
0.274739982	0.48671365674072503	0.503939986	 0 0 0
0.725260018	0.51328631944678	0.496060014	 0 0 0
0.774739982	0.013286334331854999	0.496060014	 0 0 0
0.225260002	0.98671369492823	0.503939986	 0 0 0
0.725260018	0.48671365674072503	0.996060014	 0 0 0
0.274739982	0.51328631944678	0.00394	 0 0 0
0.503669967	0.224620002	0.4631058493242	 0 0 0
0.496330033	0.775379998	0.536894132746375	 0 0 0
0.996330033	0.275380029	0.96310587119516	 0 0 0
0.003669977	0.724619971	0.03689417687742	 0 0 0
0.496330033	0.224620002	0.03689417687742	 0 0 0
0.503669967	0.775379998	0.96310587119516	 0 0 0
0.003669977	0.275380029	0.536894132746375	 0 0 0
0.996330033	0.724619971	0.4631058493242	 0 0 0
0.713105889975415	0.244459994	0.74444003	 0 0 0
0.28689416180484	0.755539991	0.255559986	 0 0 0
0.78689412509516	0.255540006	0.244440079	 0 0 0
0.213105865556055	0.744459979	0.75555997	 0 0 0
0.28689416180484	0.244459994	0.75555997	 0 0 0
0.713105889975415	0.755539991	0.244440079	 0 0 0
0.213105865556055	0.255540006	0.255559986	 0 0 0
0.78689412509516	0.744459979	0.74444003	 0 0 0

K_POINTS automatic
6 6 6 0 0 0
