# Phonon frequency and phonon lifetime in meV 
# Q-point  Mode   Phonon freq (meV)   Phonon linewidth (meV)
        1     1     -0.46263708E+01      0.0000000000E+00
        1     2     -0.18601787E+01      0.0000000000E+00
        1     3     -0.18601787E+01      0.0000000000E+00
        1     4     -0.65284067E-03      0.0000000000E+00
        1     5      0.38613153E-02      0.0000000000E+00
        1     6      0.38613155E-02      0.0000000000E+00
        1     7      0.16441273E+02      0.0000000000E+00
        1     8      0.30580796E+02      0.0000000000E+00
        1     9      0.30580796E+02      0.0000000000E+00
        1    10      0.30594389E+02      0.0000000000E+00
        1    11      0.31811702E+02      0.0000000000E+00
        1    12      0.31811702E+02      0.0000000000E+00
        1    13      0.38756671E+02      0.0000000000E+00
        1    14      0.38756671E+02      0.0000000000E+00
        1    15      0.39555779E+02      0.0000000000E+00
        1    16      0.45383667E+02      0.0000000000E+00
        1    17      0.45383667E+02      0.0000000000E+00
        1    18      0.56707717E+02      0.0000000000E+00
        1    19      0.74160333E+02      0.0000000000E+00
        1    20      0.76881064E+02      0.0000000000E+00
        1    21      0.76881064E+02      0.0000000000E+00
        1    22      0.96419253E+02      0.0000000000E+00
        1    23      0.97000336E+02      0.0000000000E+00
        1    24      0.12980480E+03      0.0000000000E+00
        2     1     -0.46266440E+01      0.0000000000E+00
        2     2     -0.18332518E+01      0.0000000000E+00
        2     3     -0.18332518E+01      0.0000000000E+00
        2     4      0.16993435E+00      0.0000000000E+00
        2     5      0.16993436E+00      0.0000000000E+00
        2     6      0.32711204E+00      0.0000000000E+00
        2     7      0.16445160E+02      0.3385361012E-05
        2     8      0.30571679E+02      0.2117748007E-06
        2     9      0.30571679E+02      0.2117748007E-06
        2    10      0.30594568E+02      0.2522913395E-06
        2    11      0.31815994E+02      0.6346040536E-07
        2    12      0.31815994E+02      0.6346040536E-07
        2    13      0.38756912E+02      0.3538466556E-08
        2    14      0.38756912E+02      0.3538466556E-08
        2    15      0.39560410E+02      0.3397023305E-07
        2    16      0.45386863E+02      0.1133128410E-06
        2    17      0.45386863E+02      0.1133128410E-06
        2    18      0.56707610E+02      0.5219782568E-09
        2    19      0.74159138E+02      0.4676747310E-10
        2    20      0.76880516E+02      0.9484302016E-10
        2    21      0.76880516E+02      0.9484302016E-10
        2    22      0.96422816E+02      0.3228681487E-12
        2    23      0.97013848E+02      0.1303106327E-12
        2    24      0.12980565E+03      0.1443375574E-18
        3     1     -0.46274632E+01      0.0000000000E+00
        3     2     -0.17526800E+01      0.0000000000E+00
        3     3     -0.17526800E+01      0.0000000000E+00
        3     4      0.35298561E+00      0.0000000000E+00
        3     5      0.35298561E+00      0.0000000000E+00
        3     6      0.65444506E+00     -0.3177184615E-05
        3     7      0.16456816E+02      0.1919308076E-06
        3     8      0.30544664E+02     -0.3518252960E-06
        3     9      0.30544664E+02     -0.3518252960E-06
        3    10      0.30595105E+02     -0.4566102765E-06
        3    11      0.31828557E+02     -0.1472443518E-06
        3    12      0.31828557E+02     -0.1472443518E-06
        3    13      0.38757631E+02     -0.5399546024E-08
        3    14      0.38757631E+02     -0.5399546024E-08
        3    15      0.39574277E+02     -0.3055602239E-06
        3    16      0.45396438E+02     -0.9564106342E-07
        3    17      0.45396438E+02     -0.9564106342E-07
        3    18      0.56707288E+02      0.2026842900E-08
        3    19      0.74155553E+02      0.1131611782E-09
        3    20      0.76878871E+02      0.3402945235E-09
        3    21      0.76878871E+02      0.3402945235E-09
        3    22      0.96433625E+02     -0.2841940154E-12
        3    23      0.97054211E+02     -0.1415163520E-11
        3    24      0.12980822E+03      0.1691817661E-18
        4     1     -0.46288281E+01      0.0000000000E+00
        4     2     -0.16209318E+01      0.0000000000E+00
        4     3     -0.16209318E+01      0.0000000000E+00
        4     4      0.56587058E+00      0.0000000000E+00
        4     5      0.56587058E+00      0.0000000000E+00
        4     6      0.98221258E+00     -0.4806743601E-05
        4     7      0.16476223E+02      0.4085054094E-05
        4     8      0.30500661E+02      0.1390190824E-06
        4     9      0.30500661E+02      0.1390190824E-06
        4    10      0.30595999E+02     -0.4810492373E-06
        4    11      0.31848535E+02     -0.1557726960E-06
        4    12      0.31848535E+02     -0.1557726960E-06
        4    13      0.38758820E+02      0.3433837603E-08
        4    14      0.38758820E+02      0.3433837603E-08
        4    15      0.39597290E+02     -0.8751705306E-06
        4    16      0.45412346E+02      0.1877655166E-07
        4    17      0.45412346E+02      0.1877655166E-07
        4    18      0.56706752E+02      0.6240268060E-08
        4    19      0.74149581E+02      0.1275923535E-08
        4    20      0.76876132E+02      0.1607690016E-08
        4    21      0.76876132E+02      0.1607690016E-08
        4    22      0.96451984E+02      0.4324149420E-12
        4    23      0.97120971E+02     -0.4300671724E-11
        4    24      0.12981251E+03      0.3063501045E-17
        5     1     -0.46307378E+01      0.0000000000E+00
        5     2     -0.14496754E+01      0.0000000000E+00
        5     3     -0.14496754E+01      0.0000000000E+00
        5     4      0.82967527E+00      0.1164367788E-02
        5     5      0.82967527E+00      0.1164367788E-02
        5     6      0.13106189E+01      0.3246845623E-05
        5     7      0.16503352E+02      0.1124557369E-04
        5     8      0.30440932E+02      0.3477798258E-05
        5     9      0.30440932E+02      0.3477798258E-05
        5    10      0.30597245E+02      0.1913970055E-05
        5    11      0.31874761E+02      0.3161773561E-05
        5    12      0.31874761E+02      0.3161773561E-05
        5    13      0.38760462E+02      0.1886530509E-06
        5    14      0.38760462E+02      0.1886530509E-06
        5    15      0.39629306E+02     -0.9129735804E-06
        5    16      0.45434515E+02      0.4506013174E-06
        5    17      0.45434515E+02      0.4506013174E-06
        5    18      0.56706002E+02      0.1727183070E-07
        5    19      0.74141224E+02      0.7264689483E-08
        5    20      0.76872301E+02      0.6761613900E-08
        5    21      0.76872301E+02      0.6761613900E-08
        5    22      0.96478247E+02      0.1407676393E-10
        5    23      0.97213528E+02     -0.6795813383E-11
        5    24      0.12981851E+03      0.8346335080E-17
        6     1     -0.46331910E+01      0.0000000000E+00
        6     2     -0.12689804E+01      0.0000000000E+00
        6     3     -0.12689804E+01      0.0000000000E+00
        6     4      0.11588663E+01      0.3071107770E-02
        6     5      0.11588663E+01      0.3071107770E-02
        6     6      0.16398529E+01      0.3964878575E-04
        6     7      0.16538163E+02      0.2713474782E-04
        6     8      0.30366843E+02      0.7338808908E-05
        6     9      0.30366843E+02      0.7338808908E-05
        6    10      0.30598839E+02      0.1064562356E-04
        6    11      0.31905998E+02      0.6615637566E-05
        6    12      0.31905998E+02      0.6615637566E-05
        6    13      0.38762536E+02      0.4198139045E-06
        6    14      0.38762536E+02      0.4198139045E-06
        6    15      0.39670126E+02      0.6100137347E-05
        6    16      0.45462845E+02      0.8826788382E-06
        6    17      0.45462845E+02      0.8826788382E-06
        6    18      0.56705039E+02      0.3284685751E-07
        6    19      0.74130486E+02      0.1315433840E-07
        6    20      0.76867381E+02      0.1125895362E-07
        6    21      0.76867381E+02      0.1125895362E-07
        6    22      0.96512698E+02      0.4051509127E-10
        6    23      0.97331252E+02      0.1537021909E-10
        6    24      0.12982624E+03      0.1572293970E-16
        7     1     -0.46361864E+01      0.0000000000E+00
        7     2     -0.11145240E+01      0.0000000000E+00
        7     3     -0.11145240E+01      0.0000000000E+00
        7     4      0.15394311E+01     -0.1538684199E-02
        7     5      0.15394311E+01     -0.1538684199E-02
        7     6      0.19700832E+01      0.7047777576E-04
        7     7      0.16580606E+02      0.3471446606E-04
        7     8      0.30279685E+02      0.9098553811E-05
        7     9      0.30279685E+02      0.9098553811E-05
        7    10      0.30600777E+02      0.1531167132E-04
        7    11      0.31941115E+02      0.3171138317E-05
        7    12      0.31941115E+02      0.3171138317E-05
        7    13      0.38765018E+02      0.3212563679E-06
        7    14      0.38765018E+02      0.3212563679E-06
        7    15      0.39719498E+02      0.7125020492E-05
        7    16      0.45497208E+02      0.1014636897E-05
        7    17      0.45497208E+02      0.1014636897E-05
        7    18      0.56703863E+02      0.4394128073E-07
        7    19      0.74117374E+02      0.3549493542E-08
        7    20      0.76861378E+02     -0.9389474375E-09
        7    21      0.76861378E+02     -0.9389474375E-09
        7    22      0.96555491E+02      0.1017030501E-09
        7    23      0.97473544E+02      0.6913617282E-11
        7    24      0.12983569E+03      0.2598014641E-16
        8     1     -0.46397221E+01      0.0000000000E+00
        8     2     -0.99654484E+00      0.0000000000E+00
        8     3     -0.99654484E+00      0.0000000000E+00
        8     4      0.19395151E+01     -0.5714293327E-02
        8     5      0.19395151E+01     -0.5714293327E-02
        8     6      0.23014549E+01      0.1238787857E-03
        8     7      0.16630616E+02      0.4897259294E-04
        8     8      0.30180586E+02      0.1326277283E-04
        8     9      0.30180586E+02      0.1326277283E-04
        8    10      0.30603050E+02      0.2681991890E-04
        8    11      0.31979177E+02      0.3493306175E-05
        8    12      0.31979177E+02      0.3493306175E-05
        8    13      0.38767877E+02      0.4461507593E-06
        8    14      0.38767877E+02      0.4461507593E-06
        8    15      0.39777123E+02      0.2169609492E-04
        8    16      0.45537455E+02      0.1314388780E-05
        8    17      0.45537455E+02      0.1314388780E-05
        8    18      0.56702476E+02      0.6884422093E-07
        8    19      0.74101893E+02      0.1431404646E-08
        8    20      0.76854297E+02     -0.7117520652E-08
        8    21      0.76854297E+02     -0.7117520652E-08
        8    22      0.96606650E+02      0.1490542349E-09
        8    23      0.97639846E+02      0.5817327726E-10
        8    24      0.12984689E+03      0.4191129470E-16
        9     1     -0.46437958E+01      0.0000000000E+00
        9     2     -0.90463173E+00      0.0000000000E+00
        9     3     -0.90463173E+00      0.0000000000E+00
        9     4      0.23387998E+01     -0.8921716886E-02
        9     5      0.23387998E+01     -0.8921716886E-02
        9     6      0.26340855E+01      0.1653779569E-03
        9     7      0.16688120E+02      0.7311847655E-04
        9     8      0.30070484E+02      0.1966280329E-04
        9     9      0.30070484E+02      0.1966280329E-04
        9    10      0.30605652E+02      0.4167392501E-04
        9    11      0.32019460E+02      0.7754500088E-05
        9    12      0.32019460E+02      0.7754500088E-05
        9    13      0.38771083E+02      0.1087493160E-05
        9    14      0.38771083E+02      0.1087493160E-05
        9    15      0.39842657E+02      0.2674454920E-04
        9    16      0.45583413E+02      0.1679647413E-05
        9    17      0.45583413E+02      0.1679647413E-05
        9    18      0.56700879E+02      0.1611255869E-06
        9    19      0.74084051E+02      0.1463189977E-08
        9    20      0.76846145E+02     -0.1037472586E-07
        9    21      0.76846145E+02     -0.1037472586E-07
        9    22      0.96666086E+02      0.2228678952E-09
        9    23      0.97829621E+02      0.6869928863E-10
        9    24      0.12985983E+03      0.7167266204E-16
       10     1     -0.46484051E+01      0.0000000000E+00
       10     2     -0.82675639E+00      0.0000000000E+00
       10     3     -0.82675639E+00      0.0000000000E+00
       10     4      0.27305388E+01     -0.1155987190E-01
       10     5      0.27305388E+01     -0.1155987190E-01
       10     6      0.29680624E+01      0.2734241871E-03
       10     7      0.16753031E+02      0.1054451841E-03
       10     8      0.29950146E+02      0.3002102549E-04
       10     9      0.29950146E+02      0.3002102549E-04
       10    10      0.30608573E+02      0.9785637241E-04
       10    11      0.32061441E+02      0.1801998369E-04
       10    12      0.32061441E+02      0.1801998369E-04
       10    13      0.38774604E+02      0.2188821697E-05
       10    14      0.38774604E+02      0.2188821697E-05
       10    15      0.39915715E+02      0.6228401258E-04
       10    16      0.45634888E+02      0.2448647660E-05
       10    17      0.45634888E+02      0.2448647660E-05
       10    18      0.56699072E+02      0.2675575001E-06
       10    19      0.74063858E+02      0.3986374387E-08
       10    20      0.76836929E+02     -0.1318762772E-07
       10    21      0.76836929E+02     -0.1318762772E-07
       10    22      0.96733627E+02      0.3285736488E-09
       10    23      0.98042324E+02      0.1848999491E-09
       10    24      0.12987452E+03      0.1315129919E-15
       11     1     -0.46535469E+01      0.0000000000E+00
       11     2     -0.75454782E+00      0.0000000000E+00
       11     3     -0.75454782E+00      0.0000000000E+00
       11     4      0.31136928E+01     -0.1443387508E-01
       11     5      0.31136928E+01     -0.1443387508E-01
       11     6      0.33034409E+01      0.3317356352E-03
       11     7      0.16825253E+02      0.1640931071E-03
       11     8      0.29820196E+02      0.3902886482E-04
       11     9      0.29820196E+02      0.3902886482E-04
       11    10      0.30611803E+02      0.1603837384E-03
       11    11      0.32104753E+02      0.3138655904E-04
       11    12      0.32104753E+02      0.3138655904E-04
       11    13      0.38778407E+02      0.3525201142E-05
       11    14      0.38778407E+02      0.3525201142E-05
       11    15      0.39995877E+02      0.7786018780E-04
       11    16      0.45691670E+02      0.2875753205E-05
       11    17      0.45691670E+02      0.2875753205E-05
       11    18      0.56697059E+02      0.4464161888E-06
       11    19      0.74041323E+02      0.5117993338E-08
       11    20      0.76826658E+02     -0.1609631660E-07
       11    21      0.76826658E+02     -0.1609631660E-07
       11    22      0.96809042E+02      0.4858912086E-09
       11    23      0.98277387E+02      0.2287587456E-09
       11    24      0.12989097E+03      0.2117179280E-15
       12     1     -0.46592181E+01      0.0000000000E+00
       12     2     -0.68230637E+00      0.0000000000E+00
       12     3     -0.68230637E+00      0.0000000000E+00
       12     4      0.34888328E+01     -0.2683924494E-01
       12     5      0.34888328E+01     -0.2683924494E-01
       12     6      0.36402427E+01      0.4168735005E-03
       12     7      0.16904678E+02      0.2599348354E-03
       12     8      0.29681146E+02      0.5106571539E-04
       12     9      0.29681146E+02      0.5106571539E-04
       12    10      0.30615331E+02      0.2798715653E-03
       12    11      0.32149158E+02      0.4936822647E-04
       12    12      0.32149158E+02      0.4936822647E-04
       12    13      0.38782463E+02      0.6205655079E-05
       12    14      0.38782463E+02      0.6205655079E-05
       12    15      0.40082694E+02      0.9101619444E-04
       12    16      0.45753536E+02      0.2822275890E-05
       12    17      0.45753536E+02      0.2822275890E-05
       12    18      0.56694840E+02      0.7324993735E-06
       12    19      0.74016460E+02     -0.2407973501E-07
       12    20      0.76815343E+02     -0.4312146095E-07
       12    21      0.76815343E+02     -0.4312146095E-07
       12    22      0.96892060E+02      0.7211902319E-09
       12    23      0.98534203E+02      0.2598351597E-09
       12    24      0.12990920E+03      0.3064633448E-15
       13     1     -0.46654151E+01      0.0000000000E+00
       13     2     -0.60541804E+00      0.0000000000E+00
       13     3     -0.60541804E+00      0.0000000000E+00
       13     4      0.38567928E+01     -0.3209006698E-01
       13     5      0.38567928E+01     -0.3209006698E-01
       13     6      0.39784556E+01      0.4520557433E-03
       13     7      0.16991190E+02      0.3075473146E-03
       13     8      0.29533428E+02      0.6107032717E-04
       13     9      0.29533428E+02      0.6107032717E-04
       13    10      0.30619144E+02      0.3360982322E-03
       13    11      0.32194511E+02      0.6029259451E-04
       13    12      0.32194511E+02      0.6029259451E-04
       13    13      0.38786741E+02      0.8029545268E-05
       13    14      0.38786741E+02      0.8029545268E-05
       13    15      0.40175690E+02      0.8219117829E-04
       13    16      0.45820247E+02      0.3008207002E-05
       13    17      0.45820247E+02      0.3008207002E-05
       13    18      0.56692417E+02      0.9360550415E-06
       13    19      0.73989280E+02     -0.2798154815E-07
       13    20      0.76802994E+02     -0.5212285372E-07
       13    21      0.76802994E+02     -0.5212285372E-07
       13    22      0.96982379E+02      0.8248643589E-09
       13    23      0.98812117E+02      0.2520931560E-09
       13    24      0.12992922E+03      0.4111157062E-15
       14     1     -0.46721337E+01      0.0000000000E+00
       14     2     -0.51880689E+00      0.0000000000E+00
       14     3     -0.51880689E+00      0.0000000000E+00
       14     4      0.42183054E+01     -0.3639291476E-01
       14     5      0.42183054E+01     -0.3639291476E-01
       14     6      0.43180328E+01      0.5645882532E-03
       14     7      0.17084661E+02      0.4147380136E-03
       14     8      0.29377414E+02      0.8978768765E-04
       14     9      0.29377414E+02      0.8978768765E-04
       14    10      0.30623228E+02      0.4843023260E-03
       14    11      0.32240736E+02      0.1254648726E-03
       14    12      0.32240736E+02      0.1254648726E-03
       14    13      0.38791217E+02      0.1610075716E-04
       14    14      0.38791217E+02      0.1610075716E-04
       14    15      0.40274369E+02      0.1039831061E-03
       14    16      0.45891557E+02      0.4059818326E-05
       14    17      0.45891557E+02      0.4059818326E-05
       14    18      0.56689793E+02      0.1289133846E-05
       14    19      0.73959799E+02     -0.2634581180E-07
       14    20      0.76789623E+02     -0.5691005481E-07
       14    21      0.76789623E+02     -0.5691005481E-07
       14    22      0.97079674E+02      0.1136345368E-08
       14    23      0.99110425E+02      0.3233672600E-09
       14    24      0.12995103E+03      0.6457679514E-15
       15     1     -0.46793697E+01      0.0000000000E+00
       15     2     -0.41426953E+00      0.0000000000E+00
       15     3     -0.41426953E+00      0.0000000000E+00
       15     4      0.45739344E+01     -0.8363305715E-01
       15     5      0.45739344E+01     -0.8363305715E-01
       15     6      0.46588944E+01      0.7453845162E-03
       15     7      0.17184955E+02      0.5556771063E-03
       15     8      0.29213432E+02      0.1021656293E-03
       15     9      0.29213432E+02      0.1021656293E-03
       15    10      0.30627570E+02      0.9269560103E-03
       15    11      0.32287802E+02      0.1760690589E-03
       15    12      0.32287802E+02      0.1760690589E-03
       15    13      0.38795868E+02      0.2147463072E-04
       15    14      0.38795868E+02      0.2147463072E-04
       15    15      0.40378222E+02      0.1592855908E-03
       15    16      0.45967213E+02      0.5332899140E-05
       15    17      0.45967213E+02      0.5332899140E-05
       15    18      0.56686969E+02      0.1813781116E-05
       15    19      0.73928032E+02     -0.1458778390E-07
       15    20      0.76775242E+02     -0.1710606060E-06
       15    21      0.76775242E+02     -0.1710606060E-06
       15    22      0.97183606E+02      0.1582117115E-08
       15    23      0.99428373E+02      0.4873427392E-09
       15    24      0.12997465E+03      0.1018717145E-14
       16     1     -0.46871181E+01      0.0000000000E+00
       16     2     -0.26993573E+00      0.0000000000E+00
       16     3     -0.26993573E+00      0.0000000000E+00
       16     4      0.49240879E+01     -0.9251521955E-01
       16     5      0.49240879E+01     -0.9251521955E-01
       16     6      0.50009278E+01      0.7918509699E-03
       16     7      0.17291930E+02      0.6341591878E-03
       16     8      0.29041784E+02      0.1179734482E-03
       16     9      0.29041784E+02      0.1179734482E-03
       16    10      0.30632154E+02      0.1132213336E-02
       16    11      0.32335711E+02      0.2254138932E-03
       16    12      0.32335711E+02      0.2254138932E-03
       16    13      0.38800676E+02      0.2724597764E-04
       16    14      0.38800676E+02      0.2724597764E-04
       16    15      0.40486727E+02      0.1728306632E-03
       16    16      0.46046955E+02      0.6057202629E-05
       16    17      0.46046955E+02      0.6057202629E-05
       16    18      0.56683948E+02      0.2246507742E-05
       16    19      0.73893996E+02     -0.6656678119E-08
       16    20      0.76759867E+02     -0.1906174910E-06
       16    21      0.76759867E+02     -0.1906174910E-06
       16    22      0.97293818E+02      0.1776207706E-08
       16    23      0.99765160E+02      0.5470579105E-09
       16    24      0.13000009E+03      0.1308516549E-14
       17     1     -0.46953739E+01      0.0000000000E+00
       17     2      0.16636504E+00      0.0000000000E+00
       17     3      0.16636504E+00      0.0000000000E+00
       17     4      0.52690483E+01     -0.1014801475E+00
       17     5      0.52690483E+01     -0.1014801475E+00
       17     6      0.53439899E+01      0.8620642568E-03
       17     7      0.17405433E+02      0.7242750061E-03
       17     8      0.28862747E+02      0.1345746006E-03
       17     9      0.28862747E+02      0.1345746006E-03
       17    10      0.30636964E+02      0.1365458645E-02
       17    11      0.32384486E+02      0.2830458418E-03
       17    12      0.32384486E+02      0.2830458418E-03
       17    13      0.38805630E+02      0.3404131989E-04
       17    14      0.38805630E+02      0.3404131989E-04
       17    15      0.40599357E+02      0.2261086189E-03
       17    16      0.46130524E+02      0.6882734306E-05
       17    17      0.46130524E+02      0.6882734306E-05
       17    18      0.56680733E+02      0.2747084621E-05
       17    19      0.73857711E+02      0.4836228601E-08
       17    20      0.76743510E+02     -0.2099056777E-06
       17    21      0.76743510E+02     -0.2099056777E-06
       17    22      0.97409945E+02      0.1956214282E-08
       17    23      0.10011994E+03      0.7807881301E-09
       17    24      0.13002736E+03      0.1667766932E-14
       18     1     -0.47041313E+01      0.0000000000E+00
       18     2      0.36095714E+00      0.0000000000E+00
       18     3      0.36095714E+00      0.0000000000E+00
       18     4      0.56090006E+01     -0.1363965905E+00
       18     5      0.56090006E+01     -0.1363965905E+00
       18     6      0.56879090E+01      0.8921513290E-03
       18     7      0.17525307E+02      0.7884123134E-03
       18     8      0.28676586E+02      0.1302361964E-03
       18     9      0.28676586E+02      0.1302361964E-03
       18    10      0.30641983E+02      0.1614215926E-02
       18    11      0.32434161E+02      0.3009981867E-03
       18    12      0.32434161E+02      0.3009981867E-03
       18    13      0.38810720E+02      0.4081061144E-04
       18    14      0.38810720E+02      0.4081061144E-04
       18    15      0.40715585E+02      0.2210769874E-03
       18    16      0.46217656E+02      0.7062558321E-05
       18    17      0.46217656E+02      0.7062558321E-05
       18    18      0.56677326E+02      0.3279654463E-05
       18    19      0.73819196E+02     -0.1445655107E-06
       18    20      0.76726189E+02     -0.2967249576E-06
       18    21      0.76726189E+02     -0.2967249576E-06
       18    22      0.97531610E+02      0.2124923001E-08
       18    23      0.10049182E+03      0.8250494881E-09
       18    24      0.13005646E+03      0.2076005828E-14
       19     1     -0.47133844E+01      0.0000000000E+00
       19     2      0.48482988E+00      0.0000000000E+00
       19     3      0.48482988E+00      0.0000000000E+00
       19     4      0.59440557E+01     -0.1493133535E+00
       19     5      0.59440557E+01     -0.1493133535E+00
       19     6      0.60324874E+01      0.9226805894E-03
       19     7      0.17651392E+02      0.8455640808E-03
       19     8      0.28483555E+02      0.6157764368E-04
       19     9      0.28483555E+02      0.6157764368E-04
       19    10      0.30647193E+02      0.1903598937E-02
       19    11      0.32484774E+02      0.3500002381E-03
       19    12      0.32484774E+02      0.3500002381E-03
       19    13      0.38815944E+02      0.4577864327E-04
       19    14      0.38815944E+02      0.4577864327E-04
       19    15      0.40834885E+02      0.2355257591E-03
       19    16      0.46308092E+02      0.7076805696E-05
       19    17      0.46308092E+02      0.7076805696E-05
       19    18      0.56673730E+02      0.3926866240E-05
       19    19      0.73778474E+02     -0.4761956494E-06
       19    20      0.76707920E+02     -0.3341199267E-06
       19    21      0.76707920E+02     -0.3341199267E-06
       19    22      0.97658427E+02      0.2300349475E-08
       19    23      0.10087989E+03      0.8985183822E-09
       19    24      0.13008742E+03      0.2555700827E-14
       20     1     -0.47231268E+01      0.0000000000E+00
       20     2      0.58475751E+00      0.0000000000E+00
       20     3      0.58475751E+00      0.0000000000E+00
       20     4      0.62742679E+01     -0.1771979833E+00
       20     5      0.62742679E+01     -0.1771979833E+00
       20     6      0.63775040E+01      0.1003472945E-02
       20     7      0.17783518E+02      0.9314306769E-03
       20     8      0.28283901E+02      0.6597172020E-04
       20     9      0.28283901E+02      0.6597172020E-04
       20    10      0.30652576E+02      0.2433141500E-02
       20    11      0.32536366E+02      0.4484666616E-03
       20    12      0.32536366E+02      0.4484666616E-03
       20    13      0.38821305E+02      0.5580516084E-04
       20    14      0.38821305E+02      0.5580516084E-04
       20    15      0.40956737E+02      0.2680153809E-03
       20    16      0.46401574E+02      0.8204025762E-05
       20    17      0.46401574E+02      0.8204025762E-05
       20    18      0.56669949E+02      0.4917186058E-05
       20    19      0.73735568E+02     -0.4606143768E-06
       20    20      0.76688720E+02     -0.3969505743E-06
       20    21      0.76688720E+02     -0.3969505743E-06
       20    22      0.97790005E+02      0.2528190365E-08
       20    23      0.10128318E+03      0.1007117747E-08
       20    24      0.13012022E+03      0.3380258728E-14
       21     1     -0.47333515E+01      0.0000000000E+00
       21     2      0.67141209E+00     -0.7138892084E+00
       21     3      0.67141209E+00     -0.7138892084E+00
       21     4      0.65996486E+01     -0.2474848208E+00
       21     5      0.65996486E+01     -0.2474848208E+00
       21     6      0.67227172E+01      0.1122347241E-02
       21     7      0.17921518E+02      0.1058199396E-02
       21     8      0.28077864E+02      0.3282463154E-04
       21     9      0.28077864E+02      0.3282463154E-04
       21    10      0.30658112E+02      0.3140293506E-02
       21    11      0.32588976E+02      0.5849544346E-03
       21    12      0.32588976E+02      0.5849544346E-03
       21    13      0.38826809E+02      0.7301166957E-04
       21    14      0.38826809E+02      0.7301166957E-04
       21    15      0.41080632E+02      0.3543120569E-03
       21    16      0.46497847E+02      0.8520951306E-05
       21    17      0.46497847E+02      0.8520951306E-05
       21    18      0.56665986E+02      0.6756640053E-05
       21    19      0.73690503E+02     -0.6636920545E-06
       21    20      0.76668609E+02     -0.5927656424E-06
       21    21      0.76668609E+02     -0.5927656424E-06
       21    22      0.97925944E+02      0.2962016211E-08
       21    23      0.10170072E+03      0.1292256850E-08
       21    24      0.13015488E+03      0.4588595033E-14
       22     1     -0.47440512E+01      0.0000000000E+00
       22     2      0.74927313E+00     -0.7254852736E+00
       22     3      0.74927313E+00     -0.7254852736E+00
       22     4      0.69201758E+01     -0.2689184132E+00
       22     5      0.69201758E+01     -0.2689184132E+00
       22     6      0.70678682E+01      0.1137864722E-02
       22     7      0.18065217E+02      0.1079835201E-02
       22     8      0.27865680E+02      0.2908359596E-04
       22     9      0.27865680E+02      0.2908359596E-04
       22    10      0.30663782E+02      0.3598650142E-02
       22    11      0.32642637E+02      0.7019655264E-03