
&CONTROL
    calculation   = 'vc-relax'
    restart_mode  = 'from_scratch'
    prefix        = 'Landau_15'
    pseudo_dir    = '/cluster/scratch/mnoe/QE/pps'
    outdir        = './'
    forc_conv_thr = 1.0d-7
    etot_conv_thr = 1.0d-7

/
&SYSTEM
    ibrav       = 0
    nat         = 32
    ntyp        = 2
    ecutwfc     = 120
    occupations = 'smearing'
    degauss     = 7.35d-4
    tot_charge  = -0.0
/
&ELECTRONS
    conv_thr    = 1.0d-8
    diagonalization = 'david'
/


&IONS
ion_dynamics = 'bfgs'
/

&CELL
cell_dynamics = 'bfgs'
cell_dofree = 'all'
/
CELL_PARAMETERS angstrom
        7.3236460686         0.0000000000         0.0000000000
        0.0000000000         7.7495899200         0.0000000000
        0.0000000000         0.0000000000         7.3236460686

ATOMIC_SPECIES
W 183.84 W_ONCV_LDA-4.0.upf
O 15.9994 O_ONCV_LDA-3.0.upf

ATOMIC_POSITIONS crystal
W 0.243059999	0.27888857781944976	0.00655	 0 0 0
W 0.7569400012049282	0.7211114221805502	0.993450003	 0 0 0
W 0.256940001	0.2211114381677422	0.506550029	 0 0 0
W 0.7430599672049282	0.7788885774224014	0.493449971	 0 0 0
W 0.7569400012049282	0.27888857781944976	0.493449971	 0 0 0
W 0.243059999	0.7211114221805502	0.506550029	 0 0 0
W 0.7430599672049282	0.2211114381677422	0.993450003	 0 0 0
W 0.256940001	0.7788885774224014	0.00655	 0 0 0
O 0.23720001	0.007510495658927808	0.00204	 0 0 0
O 0.7627999412049282	0.9924895066100404	0.997959979	 0 0 0
O 0.262799974	0.4924895062129921	0.502040021	 0 0 0
O 0.7372000272049282	0.5075104933899596	0.497960012	 0 0 0
O 0.7627999412049282	0.007510495658927808	0.497960012	 0 0 0
O 0.23720001	0.9924895066100404	0.502040021	 0 0 0
O 0.7372000272049282	0.4924895062129921	0.997959979	 0 0 0
O 0.262799974	0.5075104933899596	0.00204	 0 0 0
O 0.50190003	0.236870006	0.4568057232160927	 0 0 0
O 0.49809997	0.7631300238078799	0.5431942763612428	 0 0 0
O 0.99809997	0.263130009	0.9568057562160928	 0 0 0
O 0.001899958	0.7368700368078798	0.04319426514253158	 0 0 0
O 0.49809997	0.236870006	0.04319426514253158	 0 0 0
O 0.50190003	0.7631300238078799	0.9568057562160928	 0 0 0
O 0.001899958	0.263130009	0.5431942763612428	 0 0 0
O 0.99809997	0.7368700368078798	0.4568057232160927	 0 0 0
O 0.706805739433829	0.247130007	0.7471200202049282	 0 0 0
O 0.29319426098883544	0.7528699928078798	0.252879981	 0 0 0
O 0.7931942921563147	0.252869993	0.247120019	 0 0 0
O 0.20680573921609274	0.7471300678078798	0.7528799482049282	 0 0 0
O 0.29319426098883544	0.247130007	0.7528799482049282	 0 0 0
O 0.706805739433829	0.7528699928078798	0.247120019	 0 0 0
O 0.20680573921609274	0.252869993	0.252879981	 0 0 0
O 0.7931942921563147	0.7471300678078798	0.7471200202049282	 0 0 0

K_POINTS automatic
6 6 6 0 0 0
