&CONTROL
    calculation   = 'scf'
    restart_mode  = 'from_scratch'
    prefix        = 'Landau_22'
    pseudo_dir    = '/cluster/scratch/mnoe/QE/pps'
    outdir        = './'
/
&SYSTEM
    ibrav       = 0
    nat         = 32
    ntyp        = 2
    ecutwfc     = 120
    occupations = 'smearing'
    degauss     = 7.35d-4
    tot_charge  = -0.68
/
&ELECTRONS
    conv_thr    = 1.0d-8
    diagonalization = 'david'
/

CELL_PARAMETERS angstrom
   7.319881019   0.000000000   0.000000000
   0.000000000   7.704342347   0.000000000
   0.000000000   0.000000000   7.338033915

ATOMIC_SPECIES
W 183.84 W_ONCV_LDA-4.0.upf
O 15.9994 O_ONCV_LDA-3.0.upf

ATOMIC_POSITIONS crystal
W         0.239830010         0.281860003         0.009610000
W         0.760169958         0.718139997         0.990390005
W         0.260169990         0.218140012         0.509609995
W         0.739830042         0.781859972         0.490390005
W         0.760169958         0.281860003         0.490390005
W         0.239830010         0.718139997         0.509609995
W         0.739830042         0.218140012         0.990390005
W         0.260169990         0.781859972         0.009610000
O         0.231229998         0.008320000         0.002990000
O         0.768770002         0.991680023         0.997009996
O         0.268769986         0.491679992         0.502990004
O         0.731229998         0.508319977         0.497009996
O         0.768770002         0.008320000         0.497009996
O         0.231229998         0.991680023         0.502990004
O         0.731229998         0.491679992         0.997009996
O         0.268769986         0.508319977         0.002990000
O         0.502780018         0.230749996         0.449540004
O         0.497219982         0.769250019         0.550459963
O         0.997219982         0.269250019         0.949540037
O         0.002779961         0.730749950         0.050460012
O         0.497219982         0.230749996         0.050460012
O         0.502780018         0.769250019         0.949540037
O         0.002779961         0.269250019         0.550459963
O         0.997219982         0.730749950         0.449540004
O         0.699540037         0.245800000         0.745779968
O         0.300459996         0.754200000         0.254220016
O         0.800459963         0.254199985         0.245779984
O         0.199540020         0.745800031         0.754220032
O         0.300459996         0.245800000         0.754220032
O         0.699540037         0.754200000         0.245779984
O         0.199540020         0.254199985         0.254220016
O         0.800459963         0.745800031         0.745779968

K_POINTS automatic
6 6 6 0 0 0
