&CONTROL
    calculation   = 'scf'
    restart_mode  = 'from_scratch'
    prefix        = 'Landau_24'
    pseudo_dir    = '/cluster/scratch/mnoe/QE/pps'
    outdir        = './'
/
&SYSTEM
    ibrav       = 0
    nat         = 32
    ntyp        = 2
    ecutwfc     = 120
    occupations = 'smearing'
    degauss     = 7.35d-4
    tot_charge  = -0.1
/
&ELECTRONS
    conv_thr    = 1.0d-8
    diagonalization = 'david'
/

CELL_PARAMETERS angstrom
   7.442806218   0.000000000   0.000000000
   0.000000000   7.604585834   0.000000000
   0.000000000   0.000000000   7.436595583

ATOMIC_SPECIES
W 183.84 W_ONCV_LDA-4.0.upf
O 15.9994 O_ONCV_LDA-3.0.upf

ATOMIC_POSITIONS crystal
W        0.2389	0.29001039436000003	0.01048	
W        0.761100016	0.70998960564	0.989520045	
W        0.2611	0.20998960984	0.510479988	
W        0.738899984	0.79001036336	0.489520012	
W       0.761100016	0.29001039436000003	0.489520012	
W       0.2389	0.70998960564	0.510479988	
W       0.738899984	0.20998960984	0.989520045	
W       0.2611	0.79001036336	0.01048	
O        0.229530007	0.02374240072	0.00326	
O        0.770470009	0.97625764172	0.996739977	
O        0.270469993	0.47625758840000004	0.503260023	
O        0.729529991	0.5237424029200001	0.49674001	
O        0.770470009	0.02374240072	0.49674001	
O        0.229530007	0.97625764172	0.503260023	
O        0.729529991	0.47625758840000004	0.996739977	
O        0.270469993	0.5237424029200001	0.00326	
O    0.503030015	0.228990001	0.4916672328	
O    0.496969985	0.771009968	0.508332781	
O    0.996970018	0.271009968	0.99166723124	
O    0.003030062	0.728990001	0.008332814879999997	
O   0.496969985	0.228990001	0.008332814879999997	
O   0.503030015	0.771009968	0.99166723124	
O   0.003030062	0.271009968	0.508332781	
O   0.996970018	0.728990001	0.4916672328	
O   0.74166728956	0.245409992	0.74540004	
O   0.25833280176	0.754590054	0.254599993	
O   0.7583327572399999	0.254590008	0.245399958	
O   0.24166724952000002	0.745409977	0.75459996	
O   0.25833280176	0.245409992	0.75459996	
O   0.74166728956	0.754590054	0.245399958	
O   0.24166724952000002	0.254590008	0.254599993	
O   0.7583327572399999	0.745409977	0.74540004	

K_POINTS automatic
6 6 6 0 0 0
