
&CONTROL
    calculation   = 'vc-relax'
    restart_mode  = 'from_scratch'
    prefix        = 'Landau_12'
    pseudo_dir    = '/cluster/scratch/mnoe/QE/pps'
    outdir        = './'
    forc_conv_thr = 1.0d-7
    etot_conv_thr = 1.0d-7

/
&SYSTEM
    ibrav       = 0
    nat         = 32
    ntyp        = 2
    ecutwfc     = 120
    occupations = 'smearing'
    degauss     = 7.35d-4
    tot_charge  = -0.0
/
&ELECTRONS
    conv_thr    = 1.0d-8
    diagonalization = 'david'
/


&IONS
ion_dynamics = 'bfgs'
/

&CELL
cell_dynamics = 'bfgs'
cell_dofree = 'all'
/
CELL_PARAMETERS angstrom
        7.3236460686         0.0000000000         0.0000000000
        0.0000000000         7.7495899200         0.0000000000
        0.0000000000         0.0000000000         7.3236460686

ATOMIC_SPECIES
W 183.84 W_ONCV_LDA-4.0.upf
O 15.9994 O_ONCV_LDA-3.0.upf

ATOMIC_POSITIONS crystal
        0.244450008         0.281860003         0.005240000 0 0 0
        0.755550008         0.718139997         0.994759990 0 0 0
        0.255549992         0.218140012         0.505240010 0 0 0
        0.744449992         0.781859972         0.494760022 0 0 0
        0.755550008         0.281860003         0.494760022 0 0 0
        0.244450008         0.718139997         0.505240010 0 0 0
        0.744449992         0.218140012         0.994759990 0 0 0
        0.255549992         0.781859972         0.005240000 0 0 0
        0.239759998         0.008320000         0.001630000 0 0 0
        0.760240018         0.991680023         0.998369989 0 0 0
        0.260240018         0.491679992         0.501630011 0 0 0
        0.739759982         0.508319977         0.498369989 0 0 0
        0.760240018         0.008320000         0.498369989 0 0 0
        0.239759998         0.991680023         0.501630011 0 0 0
        0.739759982         0.491679992         0.998369989 0 0 0
        0.260240018         0.508319977         0.001630000 0 0 0
        0.501519972         0.239500008         0.449540004 0 0 0
        0.498480028         0.760499992         0.550459963 0 0 0
        0.998480028         0.260500023         0.949540037 0 0 0
        0.001519918         0.739499977         0.050460012 0 0 0
        0.498480028         0.239500008         0.050460012 0 0 0
        0.501519972         0.760499992         0.949540037 0 0 0
        0.001519918         0.260500023         0.550459963 0 0 0
        0.998480028         0.739499977         0.449540004 0 0 0
        0.699540037         0.247710011         0.747699987 0 0 0
        0.300459996         0.752290035         0.252300029 0 0 0
        0.800459963         0.252290004         0.247699971 0 0 0
        0.199540020         0.747709996         0.752300013 0 0 0
        0.300459996         0.247710011         0.752300013 0 0 0
        0.699540037         0.752290035         0.247699971 0 0 0
        0.199540020         0.252290004         0.252300029 0 0 0
        0.800459963         0.747709996         0.747699987 0 0 0

K_POINTS automatic
6 6 6 0 0 0
