&CONTROL
    calculation   = 'scf'
    restart_mode  = 'from_scratch'
    prefix        = 'Landau_15'
    pseudo_dir    = '/cluster/scratch/mnoe/QE/pps'
    outdir        = './'
/
&SYSTEM
    ibrav       = 0
    nat         = 32
    ntyp        = 2
    ecutwfc     = 120
    occupations = 'smearing'
    degauss     = 7.35d-4
    tot_charge  = -1.0
/
&ELECTRONS
    conv_thr    = 1.0d-8
    diagonalization = 'david'
/

CELL_PARAMETERS angstrom
   7.368828208   0.000000000   0.000000000
   0.000000000   7.566709217   0.000000000
   0.000000000   0.000000000   7.368828208

ATOMIC_SPECIES
W 183.84 W_ONCV_LDA-4.0.upf
O 15.9994 O_ONCV_LDA-3.0.upf

ATOMIC_POSITIONS crystal
W 0.22302249175	0.28036260685739756	-0.0007724865000000008	
W 0.7507724957903583	0.7196373931426024	-0.026977470750000038	
W 0.27697750825	0.21963740864008002	0.49922750825	
W 0.7492275055403583	0.7803625912792033	0.47302249175	
W 0.7769774800403584	0.28036260685739756	0.5007724917499999	
W 0.24922750825	0.7196373931426024	0.52697750825	
W 0.7230225212903583	0.21963740864008002	0.0007725037499999605	
W 0.25077249175	0.7803625912792033	0.026977487999999994	
O 0.220329985	0.007912064883317386	-0.02152497300000001	
O 0.7715249597903584	-0.007912052330347029	-0.02966997824999998	
O 0.27966997825	0.4920879320914587	0.47847498275	
O 0.7284750190403584	0.507912052330347	0.470329997	
O 0.7796699650403583	0.007912064883317386	0.5215250045	
O 0.22847497075	-0.007912052330347029	0.52966999025	
O 0.7203300137903583	0.4920879320914587	0.02152496775000004	
O 0.2715249925	0.507912052330347	0.02966997300000001	
O 0.5095474955	0.21801250225	0.453201432192311	
O 0.5019574835	0.770527515712164	0.5467985512244499	
O -0.009547471500000008	0.28198747524999995	0.9532014651923111	
O -0.0019574722499999977	0.7294725599621641	0.046798569878316085	
O 0.4904525045	0.21801250225	0.046798569878316085	
O 0.4980425165	0.770527515712164	0.9532014651923111	
O 0.009547458000000012	0.28198747524999995	0.5467985512244499	
O 0.001957458750000001	0.7294725599621641	0.453201432192311	
O 0.7032014567351919	0.27052747824999995	0.7480425332903584	
O 0.2967985598480473	0.7819875359621641	0.2595474955	
O 0.7967985591840915	0.22947249924999996	0.24804256525	
O 0.20320144819231103	0.718012539712164	0.7595475122903583	
O 0.2967985598480473	0.27052747824999995	0.7519575130403584	
O 0.7032014567351919	0.7819875359621641	0.24045255325000003	
O 0.20320144819231103	0.22947249924999996	0.2519574835	
O 0.7967985591840915	0.718012539712164	0.7404525340403584	

K_POINTS automatic
6 6 6 0 0 0
