
&CONTROL
    calculation   = 'vc-relax'
    restart_mode  = 'from_scratch'
    prefix        = 'Landau_5'
    pseudo_dir    = '/cluster/scratch/mnoe/QE/pps'
    outdir        = './'
    forc_conv_thr = 1.0d-7
    etot_conv_thr = 1.0d-7

/
&SYSTEM
    ibrav       = 0
    nat         = 32
    ntyp        = 2
    ecutwfc     = 120
    occupations = 'smearing'
    degauss     = 7.35d-4
    tot_charge  = -0.0
/
&ELECTRONS
    conv_thr    = 1.0d-8
    diagonalization = 'david'
/


&IONS
ion_dynamics = 'bfgs'
/

&CELL
cell_dynamics = 'bfgs'
cell_dofree = 'all'
/
CELL_PARAMETERS angstrom
        7.3236460686         0.0000000000         0.0000000000
        0.0000000000         7.7495899200         0.0000000000
        0.0000000000         0.0000000000         7.3236460686

ATOMIC_SPECIES
W 183.84 W_ONCV_LDA-4.0.upf
O 15.9994 O_ONCV_LDA-3.0.upf

ATOMIC_POSITIONS crystal
W 0.247690009	0.2808695279398166	0.00218	 0 0 0
W 0.752309969734976	0.7191304720601834	0.997819989	 0 0 0
W 0.252309975	0.2191304873892474	0.502179979	 0 0 0
W 0.7476900197349761	0.7808695071408005	0.497819989	 0 0 0
W 0.752309969734976	0.2808695279398166	0.497819989	 0 0 0
W 0.247690009	0.7191304720601834	0.502179979	 0 0 0
W 0.7476900197349761	0.2191304873892474	0.997819989	 0 0 0
W 0.252309975	0.7808695071408005	0.00218	 0 0 0
O 0.245729994	0.008050165219642602	0.00068	 0 0 0
O 0.7542700327349761	0.9919498508700135	0.999319971	 0 0 0
O 0.254270022	0.49194983007099735	0.500680029	 0 0 0
O 0.745729956734976	0.5080501491299865	0.499320004	 0 0 0
O 0.7542700327349761	0.008050165219642602	0.499320004	 0 0 0
O 0.245729994	0.9919498508700135	0.500680029	 0 0 0
O 0.745729956734976	0.49194983007099735	0.999319971	 0 0 0
O 0.254270022	0.5080501491299865	0.00068	 0 0 0
O 0.500630023	0.245620002	0.4519619104053642	 0 0 0
O 0.499369977	0.75437998693596	0.5480380674537476	 0 0 0
O 0.999369977	0.254379982	0.9519619434053642	 0 0 0
O 0.000630021	0.74561999193596	0.04803809638084386	 0 0 0
O 0.499369977	0.245620002	0.04803809638084386	 0 0 0
O 0.500630023	0.75437998693596	0.9519619434053642	 0 0 0
O 0.000630021	0.254379982	0.5480380674537476	 0 0 0
O 0.999369977	0.74561999193596	0.4519619104053642	 0 0 0
O 0.7019619378112764	0.249039987	0.749039984734976	 0 0 0
O 0.2980380843296118	0.75096001793596	0.250959994	 0 0 0
O 0.7980380727187716	0.250959997	0.249040006	 0 0 0
O 0.20196192640536426	0.74904002293596	0.750960004734976	 0 0 0
O 0.2980380843296118	0.249039987	0.750960004734976	 0 0 0
O 0.7019619378112764	0.75096001793596	0.249040006	 0 0 0
O 0.20196192640536426	0.250959997	0.250959994	 0 0 0
O 0.7980380727187716	0.74904002293596	0.749039984734976	 0 0 0

K_POINTS automatic
6 6 6 0 0 0
