
&CONTROL
    calculation   = 'vc-relax'
    restart_mode  = 'from_scratch'
    prefix        = 'Landau_27'
    pseudo_dir    = '/cluster/scratch/mnoe/QE/pps'
    outdir        = './'
    forc_conv_thr = 1.0d-7
    etot_conv_thr = 1.0d-7

/
&SYSTEM
    ibrav       = 0
    nat         = 32
    ntyp        = 2
    ecutwfc     = 120
    occupations = 'smearing'
    degauss     = 7.35d-4
    tot_charge  = -0.0
/
&ELECTRONS
    conv_thr    = 1.0d-8
    diagonalization = 'david'
/


&IONS
ion_dynamics = 'bfgs'
/

&CELL
cell_dynamics = 'bfgs'
cell_dofree = 'all'
/
CELL_PARAMETERS angstrom
        7.3236460686         0.0000000000         0.0000000000
        0.0000000000         7.7495899200         0.0000000000
        0.0000000000         0.0000000000         7.3236460686

ATOMIC_SPECIES
W 183.84 W_ONCV_LDA-4.0.upf
O 15.9994 O_ONCV_LDA-3.0.upf

ATOMIC_POSITIONS crystal
W 0.261709996	0.2668849481557657	-0.987680018	 0 0 0
W 0.7376799382913467	0.7331150518442343	-0.988290037	 0 0 0
W 0.238290004	0.23311507182602487	-0.487680001	 0 0 0
W 0.7623198702913466	0.7668851025912817	-0.488290004	 0 0 0
W 0.7382899572913466	0.2668849481557657	-0.512319982	 0 0 0
W 0.262319982	0.7331150518442343	-0.511709996	 0 0 0
W 0.7617099162913467	0.23311507182602487	-1.01231995	 0 0 0
W 0.237680001	0.7668851025912817	-1.011709996	 0 0 0
O 0.274950005	0.004244883639475048	-0.975180035	 0 0 0
O 0.7251799552913466	0.9957550247429173	-0.975049995	 0 0 0
O 0.225049995	0.49575517917843337	-0.475180002	 0 0 0
O 0.7748199182913467	0.5042449752570827	-0.475049995	 0 0 0
O 0.7250499152913467	0.004244883639475048	-0.524819998	 0 0 0
O 0.274819998	0.9957550247429173	-0.524950005	 0 0 0
O 0.7749499572913466	0.49575517917843337	-1.024819998	 0 0 0
O 0.225180002	0.5042449752570827	-1.024950037	 0 0 0
O 0.49479996	0.279799992	-0.5139240651699503	 0 0 0
O 0.503409998	0.7289100677268627	-0.4860757544309522	 0 0 0
O 0.005200028	0.220200008	-1.0139240651699502	 0 0 0
O 0.996590002	0.7710900817268627	-0.9860760423201932	 0 0 0
O 0.50520004	0.279799992	-0.9860760423201932	 0 0 0
O 0.496590002	0.7289100677268627	-1.0139240651699502	 0 0 0
O 0.994799993	0.220200008	-0.4860757544309522	 0 0 0
O 0.003410012	0.7710900817268627	-0.5139240651699503	 0 0 0
O 0.7360758181396057	0.228909993	-0.2534100917086534	 0 0 0
O 0.26392398546129664	0.7202000827268626	-0.75520004	 0 0 0
O 0.7639243092777012	0.271090007	-0.753409998	 0 0 0
O 0.2360759188300497	0.7798000667268628	-0.2552001077086534	 0 0 0
O 0.26392398546129664	0.228909993	-1.2465900817086535	 0 0 0
O 0.7360758181396057	0.7202000827268626	-0.7447999599999999	 0 0 0
O 0.2360759188300497	0.271090007	-0.746590002	 0 0 0
O 0.7639243092777012	0.7798000667268628	-1.2448000727086534	 0 0 0

K_POINTS automatic
6 6 6 0 0 0
