
&CONTROL
    calculation   = 'vc-relax'
    restart_mode  = 'from_scratch'
    prefix        = 'Landau_2'
    pseudo_dir    = '/cluster/scratch/mnoe/QE/pps'
    outdir        = './'
    forc_conv_thr = 1.0d-7
    etot_conv_thr = 1.0d-7

/
&SYSTEM
    ibrav       = 0
    nat         = 32
    ntyp        = 2
    ecutwfc     = 120
    occupations = 'smearing'
    degauss     = 7.35d-4
    tot_charge  = -0.0
/
&ELECTRONS
    conv_thr    = 1.0d-8
    diagonalization = 'david'
/


&IONS
ion_dynamics = 'bfgs'
/

&CELL
cell_dynamics = 'bfgs'
cell_dofree = 'all'
/
CELL_PARAMETERS angstrom
        7.3236460686         0.0000000000         0.0000000000
        0.0000000000         7.7495899200         0.0000000000
        0.0000000000         0.0000000000         7.3236460686

ATOMIC_SPECIES
W 183.84 W_ONCV_LDA-4.0.upf
O 15.9994 O_ONCV_LDA-3.0.upf

ATOMIC_POSITIONS crystal
W 0.249080001	0.2822136678927861	0.00087	 0 0 0
W 0.750919966	0.7177863321072139	0.99913004	 0 0 0
W 0.250919999	0.21778634663857616	0.500869993	 0 0 0
W 0.749080034	0.7822136368927861	0.499130007	 0 0 0
W 0.750919966	0.2822136678927861	0.499130007	 0 0 0
W 0.249080001	0.7177863321072139	0.500869993	 0 0 0
W 0.749080034	0.21778634663857616	0.99913004	 0 0 0
W 0.250919999	0.7822136368927861	0.00087	 0 0 0
O 0.248289999	0.008989214698561803	0.00027	 0 0 0
O 0.751709969	0.9910108091449861	0.999729981	 0 0 0
O 0.251710001	0.4910107771764681	0.500270019	 0 0 0
O 0.748290031	0.5089891927920498	0.499729981	 0 0 0
O 0.751709969	0.008989214698561803	0.499729981	 0 0 0
O 0.248289999	0.9910108091449861	0.500270019	 0 0 0
O 0.748290031	0.4910107771764681	0.999729981	 0 0 0
O 0.251710001	0.5089891927920498	0.00027	 0 0 0
O 0.500249997	0.248249988	0.45136800479147704	 0 0 0
O 0.499750003	0.751749965	0.5486319642392864	 0 0 0
O 0.999750035	0.251749996	0.9513680362918363	 0 0 0
O 0.000249982	0.748250004	0.04863201258319361	 0 0 0
O 0.499750003	0.248249988	0.04863201258319361	 0 0 0
O 0.500249997	0.751749965	0.9513680362918363	 0 0 0
O 0.000249982	0.251749996	0.5486319642392864	 0 0 0
O 0.999750035	0.748250004	0.45136800479147704	 0 0 0
O 0.70136803882248	0.249620007	0.749620007	 0 0 0
O 0.29863199670816365	0.750380009	0.250379977	 0 0 0
O 0.7986319632082834	0.250379978	0.249619958	 0 0 0
O 0.20136802082271957	0.749620022	0.750379993	 0 0 0
O 0.29863199670816365	0.249620007	0.750379993	 0 0 0
O 0.70136803882248	0.750380009	0.249619958	 0 0 0
O 0.20136802082271957	0.250379978	0.250379977	 0 0 0
O 0.7986319632082834	0.749620022	0.749620007	 0 0 0

K_POINTS automatic
6 6 6 0 0 0
