
&CONTROL
    calculation   = 'vc-relax'
    restart_mode  = 'from_scratch'
    prefix        = 'Landau_16'
    pseudo_dir    = '/cluster/scratch/mnoe/QE/pps'
    outdir        = './'
    forc_conv_thr = 1.0d-7
    etot_conv_thr = 1.0d-7

/
&SYSTEM
    ibrav       = 0
    nat         = 32
    ntyp        = 2
    ecutwfc     = 120
    occupations = 'smearing'
    degauss     = 7.35d-4
    tot_charge  = -0.0
/
&ELECTRONS
    conv_thr    = 1.0d-8
    diagonalization = 'david'
/


&IONS
ion_dynamics = 'bfgs'
/

&CELL
cell_dynamics = 'bfgs'
cell_dofree = 'all'
/
CELL_PARAMETERS angstrom
        7.3236460686         0.0000000000         0.0000000000
        0.0000000000         7.7495899200         0.0000000000
        0.0000000000         0.0000000000         7.3236460686

ATOMIC_SPECIES
W 183.84 W_ONCV_LDA-4.0.upf
O 15.9994 O_ONCV_LDA-3.0.upf

ATOMIC_POSITIONS crystal
W 0.2426	0.28330805586496005	0.00699	 0 0 0
W 0.757400032	0.71669194413504	0.993009977	 0 0 0
W 0.2574	0.21669195721624	0.506990023	 0 0 0
W 0.742599968	0.78330802486496	0.49301001	 0 0 0
W 0.757400032	0.28330805586496005	0.49301001	 0 0 0
W 0.2426	0.71669194413504	0.506990023	 0 0 0
W 0.742599968	0.21669195721624	0.993009977	 0 0 0
W 0.2574	0.78330802486496	0.00699	 0 0 0
O 0.236350007	0.01106004652792	0.00217	 0 0 0
O 0.763649993	0.98893997992592	0.997829951	 0 0 0
O 0.263649993	0.4889399449604	0.502170017	 0 0 0
O 0.736350007	0.51106002800512	0.497830016	 0 0 0
O 0.763649993	0.01106004652792	0.497830016	 0 0 0
O 0.236350007	0.98893997992592	0.502170017	 0 0 0
O 0.736350007	0.4889399449604	0.997829951	 0 0 0
O 0.263649993	0.51106002800512	0.00217	 0 0 0
O 0.502019999	0.236	0.4570246083168	 0 0 0
O 0.497980001	0.764000016	0.542975366998	 0 0 0
O 0.997979968	0.263999985	0.95702463517664	 0 0 0
O 0.002020001	0.736000015	0.04297541331168	 0 0 0
O 0.497980001	0.236	0.04297541331168	 0 0 0
O 0.502019999	0.764000016	0.95702463517664	 0 0 0
O 0.002020001	0.263999985	0.542975366998	 0 0 0
O 0.997979968	0.736000015	0.4570246083168	 0 0 0
O 0.70702464553816	0.246939995	0.746929974	 0 0 0
O 0.29297539782336	0.75305999	0.253069993	 0 0 0
O 0.7929753627766399	0.25305999	0.246930007	 0 0 0
O 0.20702462444472	0.746940041	0.753070026	 0 0 0
O 0.29297539782336	0.246939995	0.753070026	 0 0 0
O 0.70702464553816	0.75305999	0.246930007	 0 0 0
O 0.20702462444472	0.25305999	0.253069993	 0 0 0
O 0.7929753627766399	0.746940041	0.746929974	 0 0 0

K_POINTS automatic
6 6 6 0 0 0
