
&CONTROL
    calculation   = 'vc-relax'
    restart_mode  = 'from_scratch'
    prefix        = 'Landau_19'
    pseudo_dir    = '/cluster/scratch/mnoe/QE/pps'
    outdir        = './'
    forc_conv_thr = 1.0d-7
    etot_conv_thr = 1.0d-7

/
&SYSTEM
    ibrav       = 0
    nat         = 32
    ntyp        = 2
    ecutwfc     = 120
    occupations = 'smearing'
    degauss     = 7.35d-4
    tot_charge  = -0.0
/
&ELECTRONS
    conv_thr    = 1.0d-8
    diagonalization = 'david'
/


&IONS
ion_dynamics = 'bfgs'
/

&CELL
cell_dynamics = 'bfgs'
cell_dofree = 'all'
/
CELL_PARAMETERS angstrom
        7.3236460686         0.0000000000         0.0000000000
        0.0000000000         7.7495899200         0.0000000000
        0.0000000000         0.0000000000         7.3236460686

ATOMIC_SPECIES
W 183.84 W_ONCV_LDA-4.0.upf
O 15.9994 O_ONCV_LDA-3.0.upf

ATOMIC_POSITIONS crystal
W 0.241209991	0.285219819481468	0.0083	 0 0 0
W 0.758790041	0.714780180518532	0.991699991	 0 0 0
W 0.258790009	0.21478019106647364	0.508300009	 0 0 0
W 0.741209959	0.785219788481468	0.491699991	 0 0 0
W 0.758790041	0.285219819481468	0.491699991	 0 0 0
W 0.241209991	0.714780180518532	0.508300009	 0 0 0
W 0.741209959	0.21478019106647364	0.991699991	 0 0 0
W 0.258790009	0.785219788481468	0.0083	 0 0 0
O 0.233790002	0.014677539636337129	0.00258	 0 0 0
O 0.766209998	0.9853224913773679	0.997420006	 0 0 0
O 0.266210014	0.48532245117644734	0.502579994	 0 0 0
O 0.733790002	0.5146775270244733	0.497420006	 0 0 0
O 0.766209998	0.014677539636337129	0.497420006	 0 0 0
O 0.233790002	0.9853224913773679	0.502579994	 0 0 0
O 0.733790002	0.48532245117644734	0.997420006	 0 0 0
O 0.266210014	0.5146775270244733	0.00258	 0 0 0
O 0.502399992	0.233369998	0.4669060115190319	 0 0 0
O 0.497600008	0.766629971	0.533093974773221	 0 0 0
O 0.997600041	0.266630002	0.9669060302724451	 0 0 0
O 0.002399921	0.733369998	0.03309401754033929	 0 0 0
O 0.497600008	0.233369998	0.03309401754033929	 0 0 0
O 0.502399992	0.766629971	0.9669060302724451	 0 0 0
O 0.002399921	0.266630002	0.533093974773221	 0 0 0
O 0.997600041	0.733369998	0.4669060115190319	 0 0 0
O 0.7169060543135602	0.246370005	0.746359984	 0 0 0
O 0.28309400272755486	0.753629964	0.253639999	 0 0 0
O 0.7830939649786925	0.253629979	0.246360066	 0 0 0
O 0.2169060278158358	0.746370005	0.753640016	 0 0 0
O 0.28309400272755486	0.246370005	0.753640016	 0 0 0
O 0.7169060543135602	0.753629964	0.246360066	 0 0 0
O 0.2169060278158358	0.253629979	0.253639999	 0 0 0
O 0.7830939649786925	0.746370005	0.746359984	 0 0 0

K_POINTS automatic
6 6 6 0 0 0
