
&CONTROL
    calculation   = 'vc-relax'
    restart_mode  = 'from_scratch'
    prefix        = 'Landau_19'
    pseudo_dir    = '/cluster/scratch/mnoe/QE/pps'
    outdir        = './'
    forc_conv_thr = 1.0d-7
    etot_conv_thr = 1.0d-7

/
&SYSTEM
    ibrav       = 0
    nat         = 32
    ntyp        = 2
    ecutwfc     = 120
    occupations = 'smearing'
    degauss     = 7.35d-4
    tot_charge  = -0.0
/
&ELECTRONS
    conv_thr    = 1.0d-8
    diagonalization = 'david'
/


&IONS
ion_dynamics = 'bfgs'
/

&CELL
cell_dynamics = 'bfgs'
cell_dofree = 'all'
/
CELL_PARAMETERS angstrom
        7.3236460686         0.0000000000         0.0000000000
        0.0000000000         7.7495899200         0.0000000000
        0.0000000000         0.0000000000         7.3236460686

ATOMIC_SPECIES
W 183.84 W_ONCV_LDA-4.0.upf
O 15.9994 O_ONCV_LDA-3.0.upf

ATOMIC_POSITIONS crystal
W       0.241209991	0.28831239616000004	0.0083	 0 0 0
W       0.758790041	0.71168760384	0.991699991	 0 0 0
W       0.258790009	0.21168761029	0.508300009	 0 0 0
W       0.741209959	0.78831236516	0.491699991	 0 0 0
W      0.758790041	0.28831239616000004	0.491699991	 0 0 0
W      0.241209991	0.71168760384	0.508300009	 0 0 0
W      0.741209959	0.21168761029	0.991699991	 0 0 0
W      0.258790009	0.78831236516	0.0083	 0 0 0
O       0.233790002	0.020529400570000002	0.00258	 0 0 0
O       0.766209998	0.97947063782	0.997420006	 0 0 0
O       0.266210014	0.47947058915	0.502579994	 0 0 0
O       0.733790002	0.52052939752	0.497420006	 0 0 0
O       0.766209998	0.020529400570000002	0.497420006	 0 0 0
O       0.233790002	0.97947063782	0.502579994	 0 0 0
O       0.733790002	0.47947058915	0.997420006	 0 0 0
O       0.266210014	0.52052939752	0.00258	 0 0 0
O    0.502399992	0.233369998	0.4828907268	 0 0 0
O    0.497600008	0.766629971	0.51710927725	 0 0 0
O    0.997600041	0.266630002	0.98289073244	 0 0 0
O    0.002399921	0.733369998	0.017109314279999996	 0 0 0
O   0.497600008	0.233369998	0.017109314279999996	 0 0 0
O   0.502399992	0.766629971	0.98289073244	 0 0 0
O   0.002399921	0.266630002	0.51710927725	 0 0 0
O   0.997600041	0.733369998	0.4828907268	 0 0 0
O   0.73289077861	0.246370005	0.746359984	 0 0 0
O   0.26710930056000004	0.753629964	0.253639999	 0 0 0
O   0.76710925844	0.253629979	0.246360066	 0 0 0
O   0.23289074337000001	0.746370005	0.753640016	 0 0 0
O   0.26710930056000004	0.246370005	0.753640016	 0 0 0
O   0.73289077861	0.753629964	0.246360066	 0 0 0
O   0.23289074337000001	0.253629979	0.253639999	 0 0 0
O   0.76710925844	0.746370005	0.746359984	 0 0 0

K_POINTS automatic
6 6 6 0 0 0
