&CONTROL
    calculation   = 'scf'
    restart_mode  = 'from_scratch'
    prefix        = 'Landau_4'
    pseudo_dir    = '/cluster/scratch/mnoe/QE/pps'
    outdir        = './'
/
&SYSTEM
    ibrav       = 0
    nat         = 32
    ntyp        = 2
    ecutwfc     = 120
    occupations = 'smearing'
    degauss     = 7.35d-4
    tot_charge  = -0.2
/
&ELECTRONS
    conv_thr    = 1.0d-8
    diagonalization = 'david'
/

CELL_PARAMETERS angstrom
   7.375347597   0.000000000   0.000000000
   0.000000000   7.709835096   0.000000000
   0.000000000   0.000000000   7.375874159

ATOMIC_SPECIES
W 183.84 W_ONCV_LDA-4.0.upf
O 15.9994 O_ONCV_LDA-3.0.upf

ATOMIC_POSITIONS crystal
W 0.24815209429313445	0.278718337869966	0.0017450224079376706	
W 0.7518478873087814	0.721281662130034	-0.0017450201105413917	
W 0.25184790570686555	0.22128167817378447	0.5017450234068056	
W 0.7481520792912013	0.7787183392262329	0.4982549765931944	
W 0.7518478873087814	0.278718337869966	0.4982549765931944	
W 0.24815209429313445	0.721281662130034	0.5017450234068056	
W 0.7481520792912013	0.22128167817378447	-0.0017450201105413917	
W 0.25184790570686555	0.7787183392262329	0.0017450224079376706	
O 0.24659086238929215	0.007464117247977733	0.000542385296663781	
O 0.7534091160162463	-0.007464116166739134	-0.0005423859958713417	
O 0.25340913601251913	0.49253588518952773	0.5005423826996072	
O 0.7465908505837364	0.5074641161667391	0.49945761400412864	
O 0.7534091160162463	0.007464117247977733	0.49945761400412864	
O 0.24659086238929215	-0.007464116166739134	0.5005423826996072	
O 0.7465908505837364	0.49253588518952773	-0.0005423859958713417	
O 0.25340913601251913	0.5074641161667391	0.000542385296663781	
O 0.5005054279816208	0.24650296340813743	0.45722199338853614	
O 0.49949457201837916	0.7534970387464226	0.5427780080552318	
O -0.0005054312778850651	0.2534970335952587	0.9572220263885362	
O 0.0005054229872810815	0.7465029685593014	0.04277799338644864	
O 0.49949457201837916	0.24650296340813743	0.04277799338644864	
O 0.5005054279816208	0.7534970387464226	0.9572220263885362	
O 0.0005054229872810815	0.2534970335952587	0.5427780080552318	
O -0.0005054312778850651	0.7465029685593014	0.45722199338853614	
O 0.7072220086447769	0.2492368650862356	0.7492338529810195	
O 0.29277798991145515	0.7507631401648152	0.2507661303189718	
O 0.7927780247552405	0.2507631349137644	0.24923387617366985	
O 0.20722200938853613	0.7492368672407956	0.7507661136189632	
O 0.29277798991145515	0.2492368650862356	0.7507661136189632	
O 0.7072220086447769	0.7507631401648152	0.24923387617366985	
O 0.20722200938853613	0.2507631349137644	0.2507661303189718	
O 0.7927780247552405	0.7492368672407956	0.7492338529810195	

K_POINTS automatic
6 6 6 0 0 0
