
&CONTROL
    calculation   = 'vc-relax'
    restart_mode  = 'from_scratch'
    prefix        = 'Landau_34'
    pseudo_dir    = '/cluster/scratch/mnoe/QE/pps'
    outdir        = './'
    forc_conv_thr = 1.0d-7
    etot_conv_thr = 1.0d-7

/
&SYSTEM
    ibrav       = 0
    nat         = 32
    ntyp        = 2
    ecutwfc     = 120
    occupations = 'smearing'
    degauss     = 7.35d-4
    tot_charge  = -0.0
/
&ELECTRONS
    conv_thr    = 1.0d-8
    diagonalization = 'david'
/


&IONS
ion_dynamics = 'bfgs'
/

&CELL
cell_dynamics = 'bfgs'
cell_dofree = 'all'
/
CELL_PARAMETERS angstrom
        7.3236460686         0.0000000000         0.0000000000
        0.0000000000         7.7495899200         0.0000000000
        0.0000000000         0.0000000000         7.3236460686

ATOMIC_SPECIES
W 183.84 W_ONCV_LDA-4.0.upf
O 15.9994 O_ONCV_LDA-3.0.upf

ATOMIC_POSITIONS crystal
W 0.264739986	0.27823097965760935	-0.984490051	 0 0 0
W 0.7344900316029384	0.7217690203423907	-0.985259998	 0 0 0
W 0.235259998	0.22176903655470698	-0.48449000200000003	 0 0 0
W 0.7655099616029384	0.7782310172394163	-0.48525999799999997	 0 0 0
W 0.7352599786029383	0.27823097965760935	-0.515509998	 0 0 0
W 0.265509998	0.7217690203423907	-0.5147399859999999	 0 0 0
W 0.7647399496029383	0.22176903655470698	-1.0155099810000001	 0 0 0
W 0.234490002	0.7782310172394163	-1.0147399689999999	 0 0 0
O 0.281419995	0.007335879103470995	-0.968739998	 0 0 0
O 0.7187399786029384	0.9926641084378856	-0.968580005	 0 0 0
O 0.218579989	0.49266414601969255	-0.468739998	 0 0 0
O 0.7812600146029384	0.5073358915621144	-0.468579989	 0 0 0
O 0.7185799856029383	0.007335879103470995	-0.531260002	 0 0 0
O 0.281260002	0.9926641084378856	-0.531419995	 0 0 0
O 0.7814199426029383	0.49266414601969255	-1.031260034	 0 0 0
O 0.218739998	0.5073358915621144	-1.031419962	 0 0 0
O 0.493449915	0.287519985	-0.541667344606679	 0 0 0
O 0.504289993	0.7234400281847454	-0.45833259938688126	 0 0 0
O 0.006550014	0.21248	-1.041667344606679	 0 0 0
O 0.995710007	0.7765600081847454	-0.9583326573381789	 0 0 0
O 0.506550019	0.287519985	-0.9583326573381789	 0 0 0
O 0.495709974	0.7234400281847454	-1.041667344606679	 0 0 0
O 0.993449981	0.21248	-0.45833259938688126	 0 0 0
O 0.004290015	0.7765600081847454	-0.541667344606679	 0 0 0
O 0.7083326027839429	0.223439994	-0.25429003439706166	 0 0 0
O 0.2916673252096173	0.7124800021847454	-0.756550019	 0 0 0
O 0.7916674040101804	0.276560021	-0.754289993	 0 0 0
O 0.20833263939332095	0.7875200341847454	-0.25655003339706167	 0 0 0
O 0.2916673252096173	0.223439994	-1.2457100263970617	 0 0 0
O 0.7083326027839429	0.7124800021847454	-0.743449915	 0 0 0
O 0.20833263939332095	0.276560021	-0.7457099739999999	 0 0 0
O 0.7916674040101804	0.7875200341847454	-1.2434500003970617	 0 0 0

K_POINTS automatic
6 6 6 0 0 0
