
&CONTROL
    calculation   = 'vc-relax'
    restart_mode  = 'from_scratch'
    prefix        = 'Landau_3'
    pseudo_dir    = '/cluster/scratch/mnoe/QE/pps'
    outdir        = './'
    forc_conv_thr = 1.0d-7
    etot_conv_thr = 1.0d-7

/
&SYSTEM
    ibrav       = 0
    nat         = 32
    ntyp        = 2
    ecutwfc     = 120
    occupations = 'smearing'
    degauss     = 7.35d-4
    tot_charge  = -0.0
/
&ELECTRONS
    conv_thr    = 1.0d-8
    diagonalization = 'david'
/


&IONS
ion_dynamics = 'bfgs'
/

&CELL
cell_dynamics = 'bfgs'
cell_dofree = 'all'
/
CELL_PARAMETERS angstrom
        7.3236460686         0.0000000000         0.0000000000
        0.0000000000         7.7495899200         0.0000000000
        0.0000000000         0.0000000000         7.3236460686

ATOMIC_SPECIES
W 183.84 W_ONCV_LDA-4.0.upf
O 15.9994 O_ONCV_LDA-3.0.upf

ATOMIC_POSITIONS crystal
W 0.251300002	0.2815580494992008	-0.998630013	 0 0 0
W 0.7486300112884945	0.7184419505007992	-0.998700014	 0 0 0
W 0.248699998	0.21844196560776827	-0.498629997	 0 0 0
W 0.7513700172884945	0.7815580528152426	-0.498699998	 0 0 0
W 0.7487000122884945	0.2815580494992008	-0.501370019	 0 0 0
W 0.251370019	0.7184419505007992	-0.501300002	 0 0 0
W 0.7512999512884945	0.21844196560776827	-1.001370019	 0 0 0
W 0.248629997	0.7815580528152426	-1.001299953	 0 0 0
O 0.252770009	0.008242271597365089	-0.997240019	 0 0 0
O 0.7472400172884945	0.991757739156284	-0.997229991	 0 0 0
O 0.247229991	0.4917577424723258	-0.49724000300000004	 0 0 0
O 0.7527600112884945	0.508242260843716	-0.497229991	 0 0 0
O 0.7472299892884945	0.008242271597365089	-0.5027599970000001	 0 0 0
O 0.252759997	0.991757739156284	-0.502770009	 0 0 0
O 0.7527699742884945	0.4917577424723258	-1.002760013	 0 0 0
O 0.247240003	0.508242260843716	-1.002769976	 0 0 0
O 0.499419935	0.253309992	-0.5498026849947069	 0 0 0
O 0.500380025	0.7476600656045364	-0.450197295475313	 0 0 0
O 0.000580013	0.246690008	-1.0498026849947069	 0 0 0
O 0.999619975	0.7523399376045364	-0.9501972860004275	 0 0 0
O 0.50058	0.253309992	-0.9501972860004275	 0 0 0
O 0.499619975	0.7476600656045364	-1.0498026849947069	 0 0 0
O 0.99942	0.246690008	-0.450197295475313	 0 0 0
O 0.000380009	0.7523399376045364	-0.5498026849947069	 0 0 0
O 0.7001972811868185	0.247660018	-0.25038001071150545	 0 0 0
O 0.29980268328320153	0.7466900396045364	-0.75058	 0 0 0
O 0.7998026902361924	0.252339982	-0.750380025	 0 0 0
O 0.200197299005293	0.7533099636045364	-0.2505800147115054	 0 0 0
O 0.29980268328320153	0.247660018	-1.2496199767115053	 0 0 0
O 0.7001972811868185	0.7466900396045364	-0.7494199349999999	 0 0 0
O 0.200197299005293	0.252339982	-0.749619975	 0 0 0
O 0.7998026902361924	0.7533099636045364	-1.2494200017115054	 0 0 0

K_POINTS automatic
6 6 6 0 0 0
