
&CONTROL
    calculation   = 'vc-relax'
    restart_mode  = 'from_scratch'
    prefix        = 'Landau_12'
    pseudo_dir    = '/cluster/scratch/mnoe/QE/pps'
    outdir        = './'
    forc_conv_thr = 1.0d-7
    etot_conv_thr = 1.0d-7

/
&SYSTEM
    ibrav       = 0
    nat         = 32
    ntyp        = 2
    ecutwfc     = 120
    occupations = 'smearing'
    degauss     = 7.35d-4
    tot_charge  = -0.0
/
&ELECTRONS
    conv_thr    = 1.0d-8
    diagonalization = 'david'
/


&IONS
ion_dynamics = 'bfgs'
/

&CELL
cell_dynamics = 'bfgs'
cell_dofree = 'all'
/
CELL_PARAMETERS angstrom
        7.3236460686         0.0000000000         0.0000000000
        0.0000000000         7.7495899200         0.0000000000
        0.0000000000         0.0000000000         7.3236460686

ATOMIC_SPECIES
W 183.84 W_ONCV_LDA-4.0.upf
O 15.9994 O_ONCV_LDA-3.0.upf

ATOMIC_POSITIONS crystal
W 0.244450008	0.2839819923567167	0.00524	 0 0 0
W 0.755550008	0.7160180076432834	0.99475999	 0 0 0
W 0.255549992	0.21601801983145705	0.50524001	 0 0 0
W 0.744449992	0.7839819613567166	0.494760022	 0 0 0
W 0.755550008	0.2839819923567167	0.494760022	 0 0 0
W 0.244450008	0.7160180076432834	0.50524001	 0 0 0
W 0.744449992	0.21601801983145705	0.99475999	 0 0 0
W 0.255549992	0.7839819613567166	0.00524	 0 0 0
O 0.239759998	0.012335288191370817	0.00163	 0 0 0
O 0.760240018	0.9876647398699165	0.998369989	 0 0 0
O 0.260240018	0.4876647030588088	0.501630011	 0 0 0
O 0.739759982	0.5123352717522989	0.498369989	 0 0 0
O 0.760240018	0.012335288191370817	0.498369989	 0 0 0
O 0.239759998	0.9876647398699165	0.501630011	 0 0 0
O 0.739759982	0.4876647030588088	0.998369989	 0 0 0
O 0.260240018	0.5123352717522989	0.00163	 0 0 0
O 0.501519972	0.239500008	0.4605080087488623	 0 0 0
O 0.498480028	0.760499992	0.5394919704357185	 0 0 0
O 0.998480028	0.260500023	0.960508032751018	 0 0 0
O 0.001519918	0.739499977	0.03949201549916166	 0 0 0
O 0.498480028	0.239500008	0.03949201549916166	 0 0 0
O 0.501519972	0.760499992	0.960508032751018	 0 0 0
O 0.001519918	0.260500023	0.5394919704357185	 0 0 0
O 0.998480028	0.739499977	0.4605080087488623	 0 0 0
O 0.7105080479348802	0.247710011	0.747699987	 0 0 0
O 0.28949200024898203	0.752290035	0.252300029	 0 0 0
O 0.7894919642497006	0.252290004	0.247699971	 0 0 0
O 0.21050802493631735	0.747709996	0.752300013	 0 0 0
O 0.28949200024898203	0.247710011	0.752300013	 0 0 0
O 0.7105080479348802	0.752290035	0.247699971	 0 0 0
O 0.21050802493631735	0.252290004	0.252300029	 0 0 0
O 0.7894919642497006	0.747709996	0.747699987	 0 0 0

K_POINTS automatic
6 6 6 0 0 0
