
&CONTROL
    calculation   = 'vc-relax'
    restart_mode  = 'from_scratch'
    prefix        = 'Landau_4'
    pseudo_dir    = '/cluster/scratch/mnoe/QE/pps'
    outdir        = './'
    forc_conv_thr = 1.0d-7
    etot_conv_thr = 1.0d-7

/
&SYSTEM
    ibrav       = 0
    nat         = 32
    ntyp        = 2
    ecutwfc     = 120
    occupations = 'smearing'
    degauss     = 7.35d-4
    tot_charge  = -0.0
/
&ELECTRONS
    conv_thr    = 1.0d-8
    diagonalization = 'david'
/


&IONS
ion_dynamics = 'bfgs'
/

&CELL
cell_dynamics = 'bfgs'
cell_dofree = 'all'
/
CELL_PARAMETERS angstrom
        7.3236460686         0.0000000000         0.0000000000
        0.0000000000         7.7495899200         0.0000000000
        0.0000000000         0.0000000000         7.3236460686

ATOMIC_SPECIES
W 183.84 W_ONCV_LDA-4.0.upf
O 15.9994 O_ONCV_LDA-3.0.upf

ATOMIC_POSITIONS crystal
W 0.25	0.28026807415363486	0.0	 0 0 0
W 0.7499999915378551	0.7197319258463651	0.0	 0 0 0
W 0.25	0.21973194137524918	0.5	 0 0 0
W 0.7499999915378551	0.7802680595490407	0.5	 0 0 0
W 0.7499999915378551	0.28026807415363486	0.5	 0 0 0
W 0.25	0.7197319258463651	0.5	 0 0 0
W 0.7499999915378551	0.21973194137524918	0.0	 0 0 0
W 0.25	0.7802680595490407	0.0	 0 0 0
O 0.25	0.007886311371309037	0.0	 0 0 0
O 0.7499999915378551	0.9921137005221258	0.0	 0 0 0
O 0.25	0.4921136859175315	0.5	 0 0 0
O 0.7499999915378551	0.5078862994778742	0.5	 0 0 0
O 0.7499999915378551	0.007886311371309037	0.5	 0 0 0
O 0.25	0.9921137005221258	0.5	 0 0 0
O 0.7499999915378551	0.4921136859175315	0.0	 0 0 0
O 0.25	0.5078862994778742	0.0	 0 0 0
O 0.5	0.25	0.45343258325301206	 0 0 0
O 0.5	0.7499999929332608	0.5465674012001618	 0 0 0
O 0.0	0.25	0.9534326162530121	 0 0 0
O 0.0	0.7499999929332608	0.04656741793823432	 0 0 0
O 0.5	0.25	0.04656741793823432	 0 0 0
O 0.5	0.7499999929332608	0.9534326162530121	 0 0 0
O 0.0	0.25	0.5465674012001618	 0 0 0
O 0.0	0.7499999929332608	0.45343258325301206	 0 0 0
O 0.7034326072619831	0.25	0.7499999915378551	 0 0 0
O 0.296567408284843	0.7499999929332608	0.25	 0 0 0
O 0.7965674096623067	0.25	0.25	 0 0 0
O 0.2034325992530121	0.7499999929332608	0.7499999915378551	 0 0 0
O 0.296567408284843	0.25	0.7499999915378551	 0 0 0
O 0.7034326072619831	0.7499999929332608	0.25	 0 0 0
O 0.2034325992530121	0.25	0.25	 0 0 0
O 0.7965674096623067	0.7499999929332608	0.7499999915378551	 0 0 0

K_POINTS automatic
6 6 6 0 0 0
