&CONTROL
    calculation   = 'scf'
    restart_mode  = 'from_scratch'
    prefix        = 'Landau_18'
    pseudo_dir    = '/cluster/scratch/mnoe/QE/pps'
    outdir        = './'
/
&SYSTEM
    ibrav       = 0
    nat         = 32
    ntyp        = 2
    ecutwfc     = 120
    occupations = 'smearing'
    degauss     = 7.35d-4
    tot_charge  = -0.2
/
&ELECTRONS
    conv_thr    = 1.0d-8
    diagonalization = 'david'
/

CELL_PARAMETERS angstrom
   7.502493520  -0.000000031  -0.000000046
  -0.000000033   7.607393541  -0.000000163
  -0.000000046  -0.000000149   7.502493861

ATOMIC_SPECIES
W 183.84 W_ONCV_LDA-4.0.upf
O 15.9994 O_ONCV_LDA-3.0.upf

ATOMIC_POSITIONS crystal
W 0.25	0.26753264338271354	0.0	
W 0.7499999238406959	0.7324673566172865	0.0	
W 0.25	0.23246737637724274	0.5	
W 0.7499999238406959	0.7675327599413654	0.5	
W 0.7499999238406959	0.26753264338271354	0.5	
W 0.25	0.7324673566172865	0.5	
W 0.7499999238406959	0.23246737637724274	0.0	
W 0.25	0.7675327599413654	0.0	
O 0.25	0.004416802341781337	0.0	
O 0.7499999238406959	0.9955831206991319	0.0	
O 0.25	0.4955832372577838	0.5	
O 0.7499999238406959	0.5044168793008681	0.5	
O 0.7499999238406959	0.004416802341781337	0.5	
O 0.25	0.9955831206991319	0.5	
O 0.7499999238406959	0.4955832372577838	0.0	
O 0.25	0.5044168793008681	0.0	
O 0.5	0.25	0.4845732172771087	
O 0.5	0.7500000563993477	0.5154269068014559	
O 0.0	0.25	0.9845732502771087	
O 0.0	0.7500000563993477	0.015426665444108908	
O 0.5	0.25	0.015426665444108908	
O 0.5	0.7500000563993477	0.9845732502771087	
O 0.0	0.25	0.5154269068014559	
O 0.0	0.7500000563993477	0.4845732172771087	
O 0.7345731693578482	0.25	0.7499999238406959	
O 0.2654267065635869	0.7500000563993477	0.25	
O 0.7654269829607601	0.25	0.25	
O 0.23457323327710874	0.7500000563993477	0.7499999238406959	
O 0.2654267065635869	0.25	0.7499999238406959	
O 0.7345731693578482	0.7500000563993477	0.25	
O 0.23457323327710874	0.25	0.25	
O 0.7654269829607601	0.7500000563993477	0.7499999238406959	

K_POINTS automatic
6 6 6 0 0 0
