&CONTROL
    calculation   = 'scf'
    restart_mode  = 'from_scratch'
    prefix        = 'Landau_10'
    pseudo_dir    = '/cluster/scratch/mnoe/QE/pps'
    outdir        = './'
/
&SYSTEM
    ibrav       = 0
    nat         = 32
    ntyp        = 2
    ecutwfc     = 120
    occupations = 'smearing'
    degauss     = 7.35d-4
    tot_charge  = -0.15
/
&ELECTRONS
    conv_thr    = 1.0d-8
    diagonalization = 'david'
/

CELL_PARAMETERS angstrom
   7.389879754   0.000000000   0.000000000
   0.000000000   7.695200225   0.000000000
   0.000000000   0.000000000   7.391665249

ATOMIC_SPECIES
W 183.84 W_ONCV_LDA-4.0.upf
O 15.9994 O_ONCV_LDA-3.0.upf

ATOMIC_POSITIONS crystal
W        0.245380002	0.2852559994	0.00437	
W        0.754620015	0.7147440006	0.995630015	
W        0.254620015	0.2147440111	0.504369985	
W        0.745379985	0.7852559684	0.495629982	
W       0.754620015	0.2852559994	0.495629982	
W       0.245380002	0.7147440006	0.504369985	
W       0.745379985	0.2147440111	0.995630015	
W       0.254620015	0.7852559684	0.00437	
O        0.241469999	0.0147460003	0.00136	
O        0.758530049	0.9852540308	0.998640008	
O        0.258530017	0.4852539905	0.501359992	
O        0.741469951	0.5147459878	0.498640008	
O        0.758530049	0.0147460003	0.498640008	
O        0.241469999	0.9852540308	0.501359992	
O        0.741469951	0.4852539905	0.998640008	
O        0.258530017	0.5147459878	0.00136	
O    0.50125998	0.241249988	0.467093016	
O    0.49874002	0.758750012	0.5329069705	
O    0.99874002	0.258750012	0.9670930346	
O    0.001260042	0.741249958	0.0329070132	
O   0.49874002	0.241249988	0.0329070132	
O   0.50125998	0.758750012	0.9670930346	
O   0.001260042	0.258750012	0.5329069705	
O   0.99874002	0.741249958	0.467093016	
O   0.7170930589	0.248090004	0.748080045	
O   0.2829069984	0.75190995	0.251919987	
O   0.7829069606	0.251909996	0.248080013	
O   0.21709303230000002	0.74809002	0.751919955	
O   0.2829069984	0.248090004	0.751919955	
O   0.7170930589	0.75190995	0.248080013	
O   0.21709303230000002	0.251909996	0.251919987	
O   0.7829069606	0.74809002	0.748080045	

K_POINTS automatic
6 6 6 0 0 0
