
&CONTROL
    calculation   = 'vc-relax'
    restart_mode  = 'from_scratch'
    prefix        = 'Landau_1'
    pseudo_dir    = '/cluster/scratch/mnoe/QE/pps'
    outdir        = './'
    forc_conv_thr = 1.0d-7
    etot_conv_thr = 1.0d-7

/
&SYSTEM
    ibrav       = 0
    nat         = 32
    ntyp        = 2
    ecutwfc     = 120
    occupations = 'smearing'
    degauss     = 7.35d-4
    tot_charge  = -0.0
/
&ELECTRONS
    conv_thr    = 1.0d-8
    diagonalization = 'david'
/


&IONS
ion_dynamics = 'bfgs'
/

&CELL
cell_dynamics = 'bfgs'
cell_dofree = 'all'
/
CELL_PARAMETERS angstrom
        7.3236460686         0.0000000000         0.0000000000
        0.0000000000         7.7495899200         0.0000000000
        0.0000000000         0.0000000000         7.3236460686

ATOMIC_SPECIES
W 183.84 W_ONCV_LDA-4.0.upf
O 15.9994 O_ONCV_LDA-3.0.upf

ATOMIC_POSITIONS crystal
W 0.250429986	0.2817726991664003	-0.999539963	 0 0 0
W 0.7495399624294982	0.7182273008335998	-0.999569982	 0 0 0
W 0.249569998	0.2182273158692561	-0.499539995	 0 0 0
W 0.7504600044294981	0.7817727002717475	-0.499569998	 0 0 0
W 0.7495699814294982	0.2817726991664003	-0.500460005	 0 0 0
W 0.250460005	0.7182273008335998	-0.500429986	 0 0 0
W 0.7504299854294981	0.2182273158692561	-1.0004600049999999	 0 0 0
W 0.249539995	0.7817727002717475	-1.0004299859999999	 0 0 0
O 0.250919994	0.00830074853245503	-0.999079974	 0 0 0
O 0.7490799734294982	0.9916992637187613	-0.999079974	 0 0 0
O 0.249080006	0.4916992648241086	-0.499080006	 0 0 0
O 0.7509199934294981	0.5083007362812387	-0.499080006	 0 0 0
O 0.7490799734294982	0.00830074853245503	-0.500919994	 0 0 0
O 0.250919994	0.9916992637187613	-0.500919994	 0 0 0
O 0.7509199934294981	0.4916992648241086	-1.000919994	 0 0 0
O 0.249080006	0.5083007362812387	-1.000919994	 0 0 0
O 0.499809988	0.251100008	-0.5503275456649023	 0 0 0
O 0.500130007	0.7492200425348455	-0.44967243715843763	 0 0 0
O 0.00019002	0.248899992	-1.0503275456649022	 0 0 0
O 0.999870026	0.7507799585348455	-0.9496724233334758	 0 0 0
O 0.500190012	0.251100008	-0.9496724233334758	 0 0 0
O 0.499869993	0.7492200425348455	-1.0503275456649022	 0 0 0
O 0.999809988	0.248899992	-0.44967243715843763	 0 0 0
O 0.000129998	0.7507799585348455	-0.5503275456649023	 0 0 0
O 0.6996724217289395	0.249220011	-0.25012999857050183	 0 0 0
O 0.3003275450944005	0.7489000235348455	-0.750190012	 0 0 0
O 0.8003275474120641	0.250779989	-0.750130007	 0 0 0
O 0.19967243833509768	0.7510999775348455	-0.2501900205705018	 0 0 0
O 0.3003275450944005	0.249220011	-1.2498700265705018	 0 0 0
O 0.6996724217289395	0.7489000235348455	-0.749809988	 0 0 0
O 0.19967243833509768	0.250779989	-0.749869993	 0 0 0
O 0.8003275474120641	0.7510999775348455	-1.2498099885705019	 0 0 0

K_POINTS automatic
6 6 6 0 0 0
