&CONTROL
    calculation   = 'scf'
    restart_mode  = 'from_scratch'
    prefix        = 'Landau_23'
    pseudo_dir    = '/cluster/scratch/mnoe/QE/pps'
    outdir        = './'
/
&SYSTEM
    ibrav       = 0
    nat         = 16
    ntyp        = 2
    ecutwfc     = 120
    occupations = 'smearing'
    degauss     = 7.35d-4
    tot_charge  = -0.025
/
&ELECTRONS
    conv_thr    = 1.0d-8
    diagonalization = 'david'
/

CELL_PARAMETERS angstrom
   5.252593053   0.000000000   0.000000000
   0.000000000   5.252593053   0.000000000
   0.000000000   0.000000000   7.654936187

ATOMIC_SPECIES
W 183.84 W_ONCV_LDA-4.0.upf
O 15.9994 O_ONCV_LDA-3.0.upf

ATOMIC_POSITIONS crystal
W       0.2499999999999414	0.24999999999989564	0.21031157622591146	
W       0.7500000229999486	0.7500000229999806	0.789688438771865	
W       0.7500000230000171	0.7500000230000444	0.28968843877408723	
W       0.2499999999999307	0.250000000000033	0.7103115612281351	
O      0.24999999999975114	0.24999999999992117	0.47689328662683317	
O      0.7500000229999931	0.7500000230002967	0.5231067133765851	
O      0.7500000229998821	0.7500000230000174	0.02310672637317149	
O      0.2499999999997871	0.25000000000004946	0.9768932866234071	
O       0.4897844805466492	0.5102154734532843	0.2500000000000385	
O       0.510215519477901	0.48978452652212673	0.7499999999999987	
O       0.010215502453596224	0.9897845265462768	0.2500000000000038	
O       0.9897844345224347	0.01021553647765737	0.7500000000001878	
O       0.9897845265464251	0.4897844805463909	0.25000000000014444	
O       0.010215536477882828	0.5102155194778791	0.7499999999999772	
O       0.5102154734534651	0.010215502453511514	0.249999999999891	
O       0.4897845265224506	0.9897844345223903	0.7499999999997655	

K_POINTS automatic
9 9 6 0 0 0
