
&CONTROL
    calculation   = 'vc-relax'
    restart_mode  = 'from_scratch'
    prefix        = 'Landau_19'
    pseudo_dir    = '/cluster/scratch/mnoe/QE/pps'
    outdir        = './'
    forc_conv_thr = 1.0d-7
    etot_conv_thr = 1.0d-7

/
&SYSTEM
    ibrav       = 0
    nat         = 32
    ntyp        = 2
    ecutwfc     = 120
    occupations = 'smearing'
    degauss     = 7.35d-4
    tot_charge  = -0.0
/
&ELECTRONS
    conv_thr    = 1.0d-8
    diagonalization = 'david'
/


&IONS
ion_dynamics = 'bfgs'
/

&CELL
cell_dynamics = 'bfgs'
cell_dofree = 'all'
/
CELL_PARAMETERS angstrom
        7.3236460686         0.0000000000         0.0000000000
        0.0000000000         7.7495899200         0.0000000000
        0.0000000000         0.0000000000         7.3236460686

ATOMIC_SPECIES
W 183.84 W_ONCV_LDA-4.0.upf
O 15.9994 O_ONCV_LDA-3.0.upf

ATOMIC_POSITIONS crystal
        0.241209991         0.281860003         0.008300000 0 0 0
        0.758790041         0.718139997         0.991699991 0 0 0
        0.258790009         0.218140012         0.508300009 0 0 0
        0.741209959         0.781859972         0.491699991 0 0 0
        0.758790041         0.281860003         0.491699991 0 0 0
        0.241209991         0.718139997         0.508300009 0 0 0
        0.741209959         0.218140012         0.991699991 0 0 0
        0.258790009         0.781859972         0.008300000 0 0 0
        0.233790002         0.008320000         0.002580000 0 0 0
        0.766209998         0.991680023         0.997420006 0 0 0
        0.266210014         0.491679992         0.502579994 0 0 0
        0.733790002         0.508319977         0.497420006 0 0 0
        0.766209998         0.008320000         0.497420006 0 0 0
        0.233790002         0.991680023         0.502579994 0 0 0
        0.733790002         0.491679992         0.997420006 0 0 0
        0.266210014         0.508319977         0.002580000 0 0 0
        0.502399992         0.233369998         0.449540004 0 0 0
        0.497600008         0.766629971         0.550459963 0 0 0
        0.997600041         0.266630002         0.949540037 0 0 0
        0.002399921         0.733369998         0.050460012 0 0 0
        0.497600008         0.233369998         0.050460012 0 0 0
        0.502399992         0.766629971         0.949540037 0 0 0
        0.002399921         0.266630002         0.550459963 0 0 0
        0.997600041         0.733369998         0.449540004 0 0 0
        0.699540037         0.246370005         0.746359984 0 0 0
        0.300459996         0.753629964         0.253639999 0 0 0
        0.800459963         0.253629979         0.246360066 0 0 0
        0.199540020         0.746370005         0.753640016 0 0 0
        0.300459996         0.246370005         0.753640016 0 0 0
        0.699540037         0.753629964         0.246360066 0 0 0
        0.199540020         0.253629979         0.253639999 0 0 0
        0.800459963         0.746370005         0.746359984 0 0 0

K_POINTS automatic
6 6 6 0 0 0
