&CONTROL
    calculation   = 'scf'
    restart_mode  = 'from_scratch'
    prefix        = 'Landau_17'
    pseudo_dir    = '/cluster/scratch/mnoe/QE/pps'
    outdir        = './'
/
&SYSTEM
    ibrav       = 0
    nat         = 32
    ntyp        = 2
    ecutwfc     = 120
    occupations = 'smearing'
    degauss     = 7.35d-4
    tot_charge  = -0.2
/
&ELECTRONS
    conv_thr    = 1.0d-8
    diagonalization = 'david'
/

CELL_PARAMETERS angstrom
   7.425305671   0.000000000   0.000000000
   0.000000000   7.538498003   0.000000000
   0.000000000   0.000000000   7.448859148

ATOMIC_SPECIES
W 183.84 W_ONCV_LDA-4.0.upf
O 15.9994 O_ONCV_LDA-3.0.upf

ATOMIC_POSITIONS crystal
W 0.2256225922745888	0.2751920871120661	0.005686976806416062	
W 0.7570725587242236	0.7248079128879339	-0.024012005343583984	
W 0.2743774077254112	0.22480793010320518	0.5056869768867917	
W 0.7429273817783489	0.7751921247854787	0.4759879581867916	
W 0.774377352878349	0.2751920871120661	0.49431302311320835	
W 0.24292740772541122	0.7248079128879339	0.5240120418132084	
W 0.7256225876242236	0.22480793010320518	-0.005686957256416108	
W 0.2570725922745888	0.7751921247854787	0.024012024893583936	
O 0.21830015838713793	0.006503461965484475	-0.01228811638476394	
O 0.7763211033927959	-0.0065034854861833425	-0.021519122334763906	
O 0.2816998116688853	0.4934965521872293	0.4877118451712592	
O 0.723678822251616	0.5065034854861833	0.4784808613212592	
O 0.781699761051616	0.006503461965484475	0.5122881347030931	
O 0.22367880316888528	-0.0065034854861833425	0.5215191185530932	
O 0.718300164592796	0.4934965521872293	0.012288110434763974	
O 0.2763211668871379	0.5065034854861833	0.02151911638476394	
O 0.5080997362982353	0.2164576235692515	0.46584437030724096	
O 0.49949772269823534	0.7759746602774026	0.5341556697967142	
O -0.008099732155553716	0.2835423509307485	0.965844403307241	
O 0.000502266994446296	0.7240254573923324	0.03415558366516048	
O 0.49190026370176465	0.2164576235692515	0.03415558366516048	
O 0.5005022773017647	0.7759746602774026	0.965844403307241	
O 0.008099693798235342	0.2835423509307485	0.5341556697967142	
O -0.0005023053517646705	0.7240254573923324	0.46584437030724096	
O 0.7158443656476277	0.2608454599431577	0.7459865732085048	
O 0.2841555942484169	0.7738335361594696	0.25902556850887	
O 0.7841557052410563	0.23915452519868147	0.24598664755886995	
O 0.215844386307241	0.7261665818649933	0.7590255494085049	
O 0.2841555942484169	0.2608454599431577	0.7540133970103894	
O 0.7158443656476277	0.7738335361594696	0.2409744867411301	
O 0.215844386307241	0.23915452519868147	0.25401340769113007	
O 0.7841557052410563	0.7261665818649933	0.7409744208103893	

K_POINTS automatic
6 6 6 0 0 0
