
&CONTROL
    calculation   = 'vc-relax'
    restart_mode  = 'from_scratch'
    prefix        = 'Landau_22'
    pseudo_dir    = '/cluster/scratch/mnoe/QE/pps'
    outdir        = './'
    forc_conv_thr = 1.0d-7
    etot_conv_thr = 1.0d-7

/
&SYSTEM
    ibrav       = 0
    nat         = 32
    ntyp        = 2
    ecutwfc     = 120
    occupations = 'smearing'
    degauss     = 7.35d-4
    tot_charge  = -0.0
/
&ELECTRONS
    conv_thr    = 1.0d-8
    diagonalization = 'david'
/


&IONS
ion_dynamics = 'bfgs'
/

&CELL
cell_dynamics = 'bfgs'
cell_dofree = 'all'
/
CELL_PARAMETERS angstrom
        7.3236460686         0.0000000000         0.0000000000
        0.0000000000         7.7495899200         0.0000000000
        0.0000000000         0.0000000000         7.3236460686

ATOMIC_SPECIES
W 183.84 W_ONCV_LDA-4.0.upf
O 15.9994 O_ONCV_LDA-3.0.upf

ATOMIC_POSITIONS crystal
0.2697799849999999	0.281860003	0.25055995799999997	 0 0 0
-0.25055996300000005	0.718139997	-0.7302200470000002	 0 0 0
0.23022001499999994	0.218140012	0.7505599949999999	 0 0 0
0.750559958	0.781859972	0.769779985	 0 0 0
0.730220042	0.281860003	0.749440005	 0 0 0
0.2505599949999999	0.718139997	0.730220015	 0 0 0
-0.2302200470000001	0.218140012	-0.7505599630000002	 0 0 0
0.2494400049999999	0.781859972	0.230220042	 0 0 0
0.27176000599999994	0.00832	0.265780002	 0 0 0
-0.2657799980000001	0.991680023	-0.7282399940000002	 0 0 0
0.22824000999999994	0.491679992	0.765779982	 0 0 0
0.765780002	0.508319977	0.77175999	 0 0 0
0.728239998	0.00832	0.7342200019999999	 0 0 0
0.26577999799999996	0.991680023	0.728239994	 0 0 0
-0.22823999400000006	0.491679992	-0.7657799980000002	 0 0 0
0.23422001799999992	0.508319977	0.228239998	 0 0 0
0.49299994999999985	0.27345000399999997	0.6995400039999999	 0 0 0
0.49855998599999984	0.7349499049999999	0.800459963	 0 0 0
-0.992999966	0.22654999599999998	1.199540037	 0 0 0
0.001440054999999993	0.765050005	0.300460012	 0 0 0
0.5070000499999999	0.27345000399999997	0.300460012	 0 0 0
0.5014400139999999	0.7349499049999999	1.199540037	 0 0 0
-0.006999976999999993	0.22654999599999998	0.800459963	 0 0 0
-1.001439998	0.765050005	0.6995400039999999	 0 0 0
0.6995400369999999	0.23494998099999997	2.001440014	 0 0 0
0.300459996	0.726549936	0.492999966	 0 0 0
0.800459963	0.26505001899999997	0.5014399979999999	 0 0 0
0.19954001999999996	0.7734499739999999	1.9929999499999997	 0 0 0
0.300459996	0.23494998099999997	0.9985599289999999	 0 0 0
0.699540037	0.726549936	0.507000034	 0 0 0
0.19954002	0.26505001899999997	0.49856000200000006	 0 0 0
0.800459963	0.7734499739999999	1.0069999930000002	 0 0 0

K_POINTS automatic
6 6 6 0 0 0
