
&CONTROL
    calculation   = 'vc-relax'
    restart_mode  = 'from_scratch'
    prefix        = 'Landau_6'
    pseudo_dir    = '/cluster/scratch/mnoe/QE/pps'
    outdir        = './'
    forc_conv_thr = 1.0d-7
    etot_conv_thr = 1.0d-7

/
&SYSTEM
    ibrav       = 0
    nat         = 32
    ntyp        = 2
    ecutwfc     = 120
    occupations = 'smearing'
    degauss     = 7.35d-4
    tot_charge  = -0.0
/
&ELECTRONS
    conv_thr    = 1.0d-8
    diagonalization = 'david'
/


&IONS
ion_dynamics = 'bfgs'
/

&CELL
cell_dynamics = 'bfgs'
cell_dofree = 'all'
/
CELL_PARAMETERS angstrom
        7.3236460686         0.0000000000         0.0000000000
        0.0000000000         7.7495899200         0.0000000000
        0.0000000000         0.0000000000         7.3236460686

ATOMIC_SPECIES
W 183.84 W_ONCV_LDA-4.0.upf
O 15.9994 O_ONCV_LDA-3.0.upf

ATOMIC_POSITIONS crystal
W 0.2493070353599254	0.2795037541524745	0.0006543834029766265	 0 0 0
W 0.7506929514782897	0.7204962458475255	-0.0006543825414530219	 0 0 0
W 0.25069296464007457	0.22049626163033834	0.5006543837775521	 0 0 0
W 0.7493070234716972	0.7795037474196747	0.4993456162224479	 0 0 0
W 0.7506929514782897	0.2795037541524745	0.4993456162224479	 0 0 0
W 0.2493070353599254	0.7204962458475255	0.5006543837775521	 0 0 0
W 0.7493070234716972	0.22049626163033834	-0.0006543825414530219	 0 0 0
W 0.25069296464007457	0.7795037474196747	0.0006543834029766265	 0 0 0
O 0.24872157339598455	0.0076780879359833	0.0002033944862489179	 0 0 0
O 0.751278412243589	-0.007678081375054345	-0.00020339474845175313	 0 0 0
O 0.2512784260046947	0.4923219118921458	0.5002033935123527	 0 0 0
O 0.7487215627063979	0.5076780813750543	0.49979660525154823	 0 0 0
O 0.751278412243589	0.0076780879359833	0.49979660525154823	 0 0 0
O 0.24872157339598455	-0.007678081375054345	0.5002033935123527	 0 0 0
O 0.7487215627063979	0.4923219118921458	-0.00020339474845175313	 0 0 0
O 0.2512784260046947	0.5076780813750543	0.0002033944862489179	 0 0 0
O 0.5001895354931079	0.24868861127805153	0.4553014960414021	 0 0 0
O 0.4998104645068922	0.7513113860260053	0.5446984967914238	 0 0 0
O -0.00018953672920689942	0.251311387598222	0.9553015290414021	 0 0 0
O 0.00018953362023040553	0.7486886097058348	0.04469849803983648	 0 0 0
O 0.4998104645068922	0.24868861127805153	0.04469849803983648	 0 0 0
O 0.5001895354931079	0.7513113860260053	0.9553015290414021	 0 0 0
O 0.00018953362023040553	0.251311387598222	0.5446984967914238	 0 0 0
O -0.00018953672920689942	0.7486886097058348	0.4553014960414021	 0 0 0
O 0.7053015157335827	0.24971382440733836	0.7497126886053791	 0 0 0
O 0.29469849143359134	0.7502861740579024	0.2502872988696144	 0 0 0
O 0.7946985093164304	0.25028617559266164	0.2497127035651262	 0 0 0
O 0.2053015120414021	0.7497138217113952	0.750287286344608	 0 0 0
O 0.29469849143359134	0.24971382440733836	0.750287286344608	 0 0 0
O 0.7053015157335827	0.7502861740579024	0.2497127035651262	 0 0 0
O 0.2053015120414021	0.25028617559266164	0.2502872988696144	 0 0 0
O 0.7946985093164304	0.7497138217113952	0.7497126886053791	 0 0 0

K_POINTS automatic
6 6 6 0 0 0
