&CONTROL
    calculation   = 'scf'
    restart_mode  = 'from_scratch'
    prefix        = 'Landau_36'
    pseudo_dir    = '/cluster/scratch/mnoe/QE/pps'
    outdir        = './'
/
&SYSTEM
    ibrav       = 0
    nat         = 32
    ntyp        = 2
    ecutwfc     = 120
    occupations = 'smearing'
    degauss     = 7.35d-4
    tot_charge  = -0.84
/
&ELECTRONS
    conv_thr    = 1.0d-8
    diagonalization = 'david'
/

CELL_PARAMETERS angstrom
   7.313015749   0.000000000   0.000000000
   0.000000000   7.629303764   0.000000000
   0.000000000   0.000000000   7.363157192

ATOMIC_SPECIES
W 183.84 W_ONCV_LDA-4.0.upf
O 15.9994 O_ONCV_LDA-3.0.upf

ATOMIC_POSITIONS crystal
W         0.233349992         0.281860003         0.015720000
W         0.766650024         0.718139997         0.984279969
W         0.266650024         0.218140012         0.515719998
W         0.733349976         0.781859972         0.484280002
W         0.766650024         0.281860003         0.484280002
W         0.233349992         0.718139997         0.515719998
W         0.733349976         0.218140012         0.984279969
W         0.266650024         0.781859972         0.015720000
O         0.219290006         0.008320000         0.004890000
O         0.780709962         0.991680023         0.995109966
O         0.280709994         0.491679992         0.504890034
O         0.719290038         0.508319977         0.495109999
O         0.780709962         0.008320000         0.495109999
O         0.219290006         0.991680023         0.504890034
O         0.719290038         0.491679992         0.995109966
O         0.280709994         0.508319977         0.004890000
O         0.504549987         0.218490008         0.449540004
O         0.495450013         0.781509976         0.550459963
O         0.995450046         0.281510007         0.949540037
O         0.004549980         0.718489993         0.050460012
O         0.495450013         0.218490008         0.050460012
O         0.504549987         0.781509976         0.949540037
O         0.004549980         0.281510007         0.550459963
O         0.995450046         0.718489993         0.449540004
O         0.699540037         0.243120003         0.743099962
O         0.300459996         0.756879981         0.256900006
O         0.800459963         0.256879981         0.243099929
O         0.199540020         0.743119988         0.756900038
O         0.300459996         0.243120003         0.756900038
O         0.699540037         0.756879981         0.243099929
O         0.199540020         0.256879981         0.256900006
O         0.800459963         0.743119988         0.743099962

K_POINTS automatic
6 6 6 0 0 0
