
&CONTROL
    calculation   = 'vc-relax'
    restart_mode  = 'from_scratch'
    prefix        = 'Landau_34'
    pseudo_dir    = '/cluster/scratch/mnoe/QE/pps'
    outdir        = './'
    forc_conv_thr = 1.0d-7
    etot_conv_thr = 1.0d-7

/
&SYSTEM
    ibrav       = 0
    nat         = 32
    ntyp        = 2
    ecutwfc     = 120
    occupations = 'smearing'
    degauss     = 7.35d-4
    tot_charge  = -0.0
/
&ELECTRONS
    conv_thr    = 1.0d-8
    diagonalization = 'david'
/


&IONS
ion_dynamics = 'bfgs'
/

&CELL
cell_dynamics = 'bfgs'
cell_dofree = 'all'
/
CELL_PARAMETERS angstrom
        7.3236460686         0.0000000000         0.0000000000
        0.0000000000         7.7495899200         0.0000000000
        0.0000000000         0.0000000000         7.3236460686

ATOMIC_SPECIES
W 183.84 W_ONCV_LDA-4.0.upf
O 15.9994 O_ONCV_LDA-3.0.upf

ATOMIC_POSITIONS crystal
W 0.234280002	0.27847977555711945	0.01485	 0 0 0
W 0.7657200130318763	0.7215202244428806	0.985149994	 0 0 0
W 0.265720015	0.22152024056588826	0.514850006	 0 0 0
W 0.7342799510318764	0.7784797793703592	0.485149994	 0 0 0
W 0.7657200130318763	0.27847977555711945	0.485149994	 0 0 0
W 0.234280002	0.7215202244428806	0.514850006	 0 0 0
W 0.7342799510318764	0.22152024056588826	0.985149994	 0 0 0
W 0.265720015	0.7784797793703592	0.01485	 0 0 0
O 0.220989996	0.007399125799049583	0.00462	 0 0 0
O 0.7790100020318763	0.992600873617788	0.995379985	 0 0 0
O 0.279009988	0.49260087743102776	0.504620015	 0 0 0
O 0.7209899620318764	0.507399126382212	0.495380018	 0 0 0
O 0.7790100020318763	0.007399125799049583	0.495380018	 0 0 0
O 0.220989996	0.992600873617788	0.504620015	 0 0 0
O 0.7209899620318764	0.49260087743102776	0.995379985	 0 0 0
O 0.279009988	0.507399126382212	0.00462	 0 0 0
O 0.50429999	0.220240005	0.45780532518232675	 0 0 0
O 0.49570001	0.779760011845116	0.5421946788769283	 0 0 0
O 0.99570001	0.279759995	0.9578053581823268	 0 0 0
O 0.004299998	0.7202399908451159	0.04219465937345671	 0 0 0
O 0.49570001	0.220240005	0.04219465937345671	 0 0 0
O 0.50429999	0.779760011845116	0.9578053581823268	 0 0 0
O 0.004299998	0.279759995	0.5421946788769283	 0 0 0
O 0.99570001	0.7202399908451159	0.45780532518232675	 0 0 0
O 0.7078053390911954	0.243499997	0.7434800020318764	 0 0 0
O 0.2921946568495495	0.7565000358451159	0.25651998	 0 0 0
O 0.792194696845052	0.256500003	0.243479971	 0 0 0
O 0.2078053411823268	0.743500028845116	0.7565199620318763	 0 0 0
O 0.2921946568495495	0.243499997	0.7565199620318763	 0 0 0
O 0.7078053390911954	0.7565000358451159	0.243479971	 0 0 0
O 0.2078053411823268	0.256500003	0.25651998	 0 0 0
O 0.792194696845052	0.743500028845116	0.7434800020318764	 0 0 0

K_POINTS automatic
6 6 6 0 0 0
