&CONTROL
    calculation   = 'scf'
    restart_mode  = 'from_scratch'
    prefix        = 'Landau_13'
    pseudo_dir    = '/cluster/scratch/mnoe/QE/pps'
    outdir        = './'
/
&SYSTEM
    ibrav       = 0
    nat         = 32
    ntyp        = 2
    ecutwfc     = 120
    occupations = 'smearing'
    degauss     = 7.35d-4
    tot_charge  = -0.2
/
&ELECTRONS
    conv_thr    = 1.0d-8
    diagonalization = 'david'
/

CELL_PARAMETERS angstrom
   7.469440038   0.000000000   0.000000000
   0.000000000   7.616681802   0.000000000
   0.000000000   0.000000000   7.464457108

ATOMIC_SPECIES
W 183.84 W_ONCV_LDA-4.0.upf
O 15.9994 O_ONCV_LDA-3.0.upf

ATOMIC_POSITIONS crystal
W 0.24019385057534895	0.2717849643688156	-0.004370144283064111	
W 0.7461980993324379	0.7282150356311844	-0.01004014006780433	
W 0.2598061494246511	0.2282150539783987	0.4956298507187683	
W 0.7538018025144534	0.7717850371324648	0.48995984795606684	
W 0.7598060892158144	0.2717849643688156	0.5043701492812317	
W 0.25380185720583237	0.7282150356311844	0.5100401520439332	
W 0.7401938126310769	0.2282150539783987	0.0043701480154619676	
W 0.2461981427941676	0.7717850371324648	0.010040143800202187	
O 0.24234663220130176	0.0055752606870944615	-0.012411344829968706	
O 0.7534236826663522	-0.005575307978598761	-0.014173686871223196	
O 0.2576533523498166	0.4944247647850505	0.487588638098368	
O 0.746576207496511	0.5055753079785987	0.4858263002763459	
O 0.757653303565363	0.0055752606870944615	0.5124113627779341	
O 0.24657624297415487	-0.005575307978598761	0.5141737005999563	
O 0.7423465865975002	0.4944247647850505	0.012411343694021536	
O 0.2534237415769635	0.5055753079785987	0.014173685735276026	
O 0.5038083398940907	0.24134310978702145	0.47417545579081927	
O 0.5021660822367091	0.7527058702755632	0.5258246216672587	
O -0.003808319933876025	0.2586568853446335	0.9741754887908193	
O -0.0021660650352232458	0.7472942336350855	0.02582446648717492	
O 0.4961916601059093	0.24134310978702145	0.02582446648717492	
O 0.49783391776329095	0.7527058702755632	0.9741754887908193	
O 0.0038083317801823	0.2586568853446335	0.5258246216672587	
O 0.002166076881529521	0.7472942336350855	0.47417545579081927	
O 0.7241754318881731	0.2623954438413916	0.7507259972086071	
O 0.2758244906537487	0.7648751137995383	0.2532153804661079	
O 0.7758246752226906	0.2376045444745803	0.25072604845968893	
O 0.22417547179081931	0.735124989883921	0.7532153397631071	
O 0.2758244906537487	0.2623954438413916	0.7492739280063403	
O 0.7241754318881731	0.7648751137995383	0.24678463008197304	
O 0.22417547179081931	0.2376045444745803	0.249273962088392	
O 0.7758246752226906	0.735124989883921	0.7467845854518405	

K_POINTS automatic
6 6 6 0 0 0
