&CONTROL
    calculation   = 'scf'
    restart_mode  = 'from_scratch'
    prefix        = 'Landau_17'
    pseudo_dir    = '/cluster/scratch/mnoe/QE/pps'
    outdir        = './'
/
&SYSTEM
    ibrav       = 0
    nat         = 32
    ntyp        = 2
    ecutwfc     = 120
    occupations = 'smearing'
    degauss     = 7.35d-4
    tot_charge  = -0.20
/
&ELECTRONS
    conv_thr    = 1.0d-8
    diagonalization = 'david'
/

CELL_PARAMETERS angstrom
   7.421429416   0.000000000   0.000000000
   0.000000000   7.651534914   0.000000000
   0.000000000   0.000000000   7.422533779

ATOMIC_SPECIES
W 183.84 W_ONCV_LDA-4.0.upf
O 15.9994 O_ONCV_LDA-3.0.upf

ATOMIC_POSITIONS crystal
W        0.242140001	0.28763319688000005	0.00743	
W        0.757859983	0.71236680312	0.992569951	
W        0.257859999	0.21236681047	0.507430016	
W        0.742140017	0.78763316588	0.492570016	
W       0.757859983	0.28763319688000005	0.492570016	
W       0.242140001	0.71236680312	0.507430016	
W       0.742140017	0.21236681047	0.992569951	
W       0.257859999	0.78763316588	0.00743	
O        0.235499987	0.01924420051	0.00231	
O        0.764500029	0.98075583626	0.997690025	
O        0.264500029	0.48075578945	0.502309975	
O        0.735499971	0.51924419536	0.497689993	
O        0.764500029	0.01924420051	0.497689993	
O        0.235499987	0.98075583626	0.502309975	
O        0.735499971	0.48075578945	0.997690025	
O        0.264500029	0.51924419536	0.00231	
O    0.502149995	0.235119995	0.4793801244	
O    0.497850005	0.76487999	0.52061987575	
O    0.997850005	0.26487999	0.97938013292	
O    0.002150059	0.735119979	0.020619914039999996	
O   0.497850005	0.235119995	0.020619914039999996	
O   0.502149995	0.76487999	0.97938013292	
O   0.002150059	0.26487999	0.52061987575	
O   0.997850005	0.735119979	0.4793801244	
O   0.72938017423	0.246749998	0.746739977	
O   0.27061990008000003	0.753250002	0.253260023	
O   0.77061985892	0.253250002	0.246739977	
O   0.22938014091	0.746749968	0.753260023	
O   0.27061990008000003	0.246749998	0.753260023	
O   0.72938017423	0.753250002	0.246739977	
O   0.22938014091	0.253250002	0.253260023	
O   0.77061985892	0.746749968	0.746739977	

K_POINTS automatic
6 6 6 0 0 0
