&CONTROL
    calculation   = 'scf'
    restart_mode  = 'from_scratch'
    prefix        = 'Landau_38'
    pseudo_dir    = '/cluster/scratch/mnoe/QE/pps'
    outdir        = './'
/
&SYSTEM
    ibrav       = 0
    nat         = 16
    ntyp        = 2
    ecutwfc     = 120
    occupations = 'smearing'
    degauss     = 7.35d-4
    tot_charge  = -0.075
/
&ELECTRONS
    conv_thr    = 1.0d-8
    diagonalization = 'david'
/

CELL_PARAMETERS angstrom
   5.233889347   0.000000000   0.000000000
   0.000000000   5.233889347   0.000000000
   0.000000000   0.000000000   7.612011560

ATOMIC_SPECIES
W 183.84 W_ONCV_LDA-4.0.upf
O 15.9994 O_ONCV_LDA-3.0.upf

ATOMIC_POSITIONS crystal
W      0.2499999999999032	0.24999999999982755	0.20521913180802762	
W      0.7500000229999151	0.750000022999968	0.7947808831882986	
W      0.7500000230000282	0.7500000230000734	0.2947808831919702	
W      0.24999999999988548	0.2500000000000545	0.7052191168117016	
O     0.24999999999958886	0.24999999999986977	0.4672562826878114	
O     0.7500000229999886	0.7500000230004902	0.5327437173178363	
O     0.7500000229998053	0.7500000230000288	0.03274373031219638	
O     0.2499999999996482	0.25000000000008177	0.9672562826821509	
O      0.5161156791640291	0.48388427483586116	0.25000000000006367	
O      0.48388432087653216	0.5161157251235137	0.7499999999999979	
O      -0.016115696163623648	1.0161157251634139	0.2500000000000062	
O      1.0161156331240226	-0.01611566212387046	0.7500000000003103	
O      1.0161157251636588	0.5161156791636023	0.25000000000023864	
O      -0.01611566212349795	0.48388432087649597	0.7499999999999624	
O      0.48388427483615964	-0.016115696163763606	0.2499999999998199	
O      0.5161157251240488	1.0161156331239491	0.7499999999996125	

K_POINTS automatic
6 6 6 0 0 0
