&CONTROL
    calculation   = 'scf'
    restart_mode  = 'from_scratch'
    prefix        = 'Landau_5'
    pseudo_dir    = '/cluster/scratch/mnoe/QE/pps'
    outdir        = './'
/
&SYSTEM
    ibrav       = 0
    nat         = 32
    ntyp        = 2
    ecutwfc     = 120
    occupations = 'smearing'
    degauss     = 7.35d-4
    tot_charge  = -0.20
/
&ELECTRONS
    conv_thr    = 1.0d-8
    diagonalization = 'david'
/

CELL_PARAMETERS angstrom
   7.324044675   0.000000000   0.000000000
   0.000000000   7.744698024   0.000000000
   0.000000000   0.000000000   7.324044675

ATOMIC_SPECIES
W 183.84 W_ONCV_LDA-4.0.upf
O 15.9994 O_ONCV_LDA-3.0.upf

ATOMIC_POSITIONS crystal
W 0.254490002	0.281860003	0.25012997499999995	
W -0.25012996399999987	0.718139997	-0.745510014	
W 0.24551004599999998	0.218140012	0.7501299960000001	
W 0.7501299749999999	0.781859972	0.7544899860000001	
W 0.745510025	0.281860003	0.7498700199999999	
W 0.250130012	0.718139997	0.7455100299999999	
W -0.24551001399999994	0.218140012	-0.750129964	
W 0.24987003599999996	0.781859972	0.24551002500000002	
O 0.254950002	0.00832	0.253590038	
O -0.25359000900000006	0.991680023	-0.7450499330000001	
O 0.24504994900000004	0.491679992	0.7535899930000001	
O 0.753590038	0.508319977	0.754950018	
O 0.745049962	0.00832	0.7464099900000001	
O 0.253589977	0.991680023	0.745049965	
O -0.245049933	0.491679992	-0.7535900090000002	
O 0.24640997400000003	0.508319977	0.24504996199999995	
O 0.49840996699999995	0.25534001100000003	0.6995400039999999	
O 0.499670013	0.746579955	0.800459963	
O -0.998409983	0.244660021	1.199540037	
O 0.0003299730000000195	0.7534199549999999	0.300460012	
O 0.501590033	0.25534001100000003	0.300460012	
O 0.500329987	0.746579955	1.199540037	
O -0.0015900150000000197	0.244660021	0.800459963	
O -1.000329971	0.7534199549999999	0.6995400039999999	
O 0.6995400369999999	0.24658003100000003	2.0003299869999998	
O 0.300459996	0.7446599599999999	0.498409983	
O 0.800459963	0.253420001	0.500329971	
O 0.19954001999999996	0.75533995	1.998409967	
O 0.300459996	0.24658003100000003	0.999670011	
O 0.699540037	0.7446599599999999	0.501590017	
O 0.19954002	0.253420001	0.499670029	
O 0.800459963	0.75533995	1.001590031	

K_POINTS automatic
6 6 6 0 0 0
