
&CONTROL
    calculation   = 'vc-relax'
    restart_mode  = 'from_scratch'
    prefix        = 'Landau_22'
    pseudo_dir    = '/cluster/scratch/mnoe/QE/pps'
    outdir        = './'
    forc_conv_thr = 1.0d-7
    etot_conv_thr = 1.0d-7

/
&SYSTEM
    ibrav       = 0
    nat         = 16
    ntyp        = 2
    ecutwfc     = 120
    occupations = 'smearing'
    degauss     = 7.35d-4
    tot_charge  = -0.0
/
&ELECTRONS
    conv_thr    = 1.0d-8
    diagonalization = 'david'
/


&IONS
ion_dynamics = 'bfgs'
/

&CELL
cell_dynamics = 'bfgs'
cell_dofree = 'all'
/
CELL_PARAMETERS angstrom
        5.177959919             0.0             0.0
        0.0             5.177959919             0.0
        0.0             0.0            7.7496299744

ATOMIC_SPECIES
W 183.84 W_ONCV_LDA-4.0.upf
O 15.9994 O_ONCV_LDA-3.0.upf

ATOMIC_POSITIONS crystal
W     0.24999999999994393	0.24999999999990016	0.21065107252043705	 0 0 0
W     0.7500000229999508	0.7500000229999815	0.789348942477436	 0 0 0
W     0.7500000230000163	0.7500000230000425	0.2893489424795617	 0 0 0
W     0.2499999999999337	0.25000000000003153	0.7106510575225641	 0 0 0
O W   0.24999999999976197	0.2499999999999246	0.47753575355610134	 0 0 0
O W   0.7500000229999935	0.7500000230002838	0.5224642464471684	 0 0 0
O W   0.7500000229998872	0.7500000230000167	0.022464259443903165	 0 0 0
O W   0.24999999999979633	0.25000000000004735	0.9775357535528242	 0 0 0
O     0.48802906730549056	0.5119708866944459	0.25000000000003686	 0 0 0
O     0.5119709327179923	0.48802911328203424	0.7499999999999988	 0 0 0
O     0.011970915694744219	0.9880291133051343	0.2500000000000036	 0 0 0
O     0.9880290212823288	0.011970949717759222	0.7500000000001796	 0 0 0
O     0.9880291133052762	0.4880290673052435	0.25000000000013817	 0 0 0
O     0.011970949717974876	0.5119709327179713	0.7499999999999782	 0 0 0
O     0.5119708866946188	0.011970915694663187	0.24999999999989572	 0 0 0
O     0.48802911328234405	0.9880290212822863	0.7499999999997757	 0 0 0

K_POINTS automatic
6 6 6 0 0 0
