&CONTROL
    calculation   = 'scf'
    restart_mode  = 'from_scratch'
    prefix        = 'Landau_25'
    pseudo_dir    = '/cluster/scratch/mnoe/QE/pps'
    outdir        = './'
/
&SYSTEM
    ibrav       = 0
    nat         = 32
    ntyp        = 2
    ecutwfc     = 120
    occupations = 'smearing'
    degauss     = 7.35d-4
    tot_charge  = -0.84
/
&ELECTRONS
    conv_thr    = 1.0d-8
    diagonalization = 'david'
/

CELL_PARAMETERS angstrom
   7.445082597   0.000000000   0.000000000
   0.000000000   7.597667242   0.000000000
   0.000000000   0.000000000   7.437160961

ATOMIC_SPECIES
W 183.84 W_ONCV_LDA-4.0.upf
O 15.9994 O_ONCV_LDA-3.0.upf

ATOMIC_POSITIONS crystal
W        0.238440001	0.29034999400000006	0.01092	
W        0.761559966	0.7096500059999999	0.989080018	
W        0.261559999	0.20965000975	0.510919982	
W        0.738440034	0.790349963	0.489080018	
W       0.761559966	0.29034999400000006	0.489080018	
W       0.238440001	0.7096500059999999	0.510919982	
W       0.738440034	0.20965000975	0.989080018	
W       0.261559999	0.790349963	0.01092	
O        0.228669993	0.024385000750000003	0.0034	
O        0.771330007	0.9756150425	0.996599987	
O        0.271330007	0.47561498825000004	0.503400013	
O        0.728669993	0.524385004	0.496599987	
O        0.771330007	0.024385000750000003	0.496599987	
O        0.228669993	0.9756150425	0.503400013	
O        0.728669993	0.47561498825000004	0.996599987	
O        0.271330007	0.524385004	0.0034	
O    0.503160011	0.228119995	0.493422534	
O    0.496839989	0.771880036	0.50657748175	
O    0.996839989	0.271880005	0.993422531	
O    0.00316	0.728119995	0.006577514999999999	
O   0.496839989	0.228119995	0.006577514999999999	
O   0.503160011	0.771880036	0.993422531	
O   0.00316	0.271880005	0.50657748175	
O   0.996839989	0.728119995	0.493422534	
O   0.74342259175	0.245220011	0.745209978	
O   0.256577502	0.754780004	0.254790006	
O   0.7565774569999999	0.254779989	0.245209929	
O   0.24342255075	0.745220027	0.754790022	
O   0.256577502	0.245220011	0.754790022	
O   0.74342259175	0.754780004	0.245209929	
O   0.24342255075	0.254779989	0.254790006	
O   0.7565774569999999	0.745220027	0.745209978	

K_POINTS automatic
6 6 6 0 0 0
