&CONTROL
    calculation   = 'scf'
    restart_mode  = 'from_scratch'
    prefix        = 'Landau_9'
    pseudo_dir    = '/cluster/scratch/mnoe/QE/pps'
    outdir        = './'
/
&SYSTEM
    ibrav       = 0
    nat         = 32
    ntyp        = 2
    ecutwfc     = 120
    occupations = 'smearing'
    degauss     = 7.35d-4
    tot_charge  = -1.0
/
&ELECTRONS
    conv_thr    = 1.0d-8
    diagonalization = 'david'
/

CELL_PARAMETERS angstrom
   7.356365541   0.000000000   0.000000000
   0.000000000   7.680833747   0.000000000
   0.000000000   0.000000000   7.361402262

ATOMIC_SPECIES
W 183.84 W_ONCV_LDA-4.0.upf
O 15.9994 O_ONCV_LDA-3.0.upf

ATOMIC_POSITIONS crystal
W 0.23578554600203103	0.2800781487152801	0.0016248244203336225	
W 0.7524355400051997	0.71992185128472	-0.0140981661296664	
W 0.264214453997969	0.21992186687670262	0.5016248231893288	
W 0.7475644488050666	0.7800781360667435	0.48590181328932874	
W 0.7642144335050666	0.2800781487152801	0.4983751768106712	
W 0.24756445399796898	0.71992185128472	0.5140981867106712	
W 0.7357855553051997	0.21992186687670262	-0.0016248140703336456	
W 0.25243554600203105	0.7800781360667435	0.014098176479666377	
O 0.2328109414139342	0.007834570049388971	-0.009062322917360328	
O 0.7635279215922112	-0.007834559481025466	-0.01394932606736031	
O 0.267189040261174	0.49216542787043793	0.4909376542577479	
O 0.7364720571045172	0.5078345594810255	0.4860506628077479	
O 0.7671890247045172	0.007834570049388971	0.5090623362861391	
O 0.236472035761174	-0.007834559481025466	0.513949327736139	
O 0.7328109539922112	0.49216542787043793	0.009062319767360345	
O 0.2635279459139342	0.5078345594810255	0.013949322917360327	
O 0.5048626934265299	0.23166992011604515	0.45389698831900926	
O 0.5003086862265299	0.7631789249025546	0.5461029982164195	
O -0.004862686363864293	0.26833006638395485	0.9538970213190093	
O -0.00030868681386428615	0.7368211104211202	0.04610301110547534	
O 0.49513730657347005	0.23166992011604515	0.04610301110547534	
O 0.49969131377347004	0.7631789249025546	0.9538970213190093	
O 0.004862670926529938	0.26833006638395485	0.5461029982164195	
O 0.00030867137652993175	0.7368211104211202	0.45389698831900926	
O 0.7038970112553036	0.25836448928399813	0.7482543273911391	
O 0.2961030022092676	0.7652405172340455	0.2551573131379703	
O 0.7961030076881426	0.24163550060246386	0.2482543549879703	
O 0.2038970043190093	0.7347595182025112	0.755157314791139	
O 0.2961030022092676	0.25836448928399813	0.7517456816462033	
O 0.7038970112553036	0.7652405172340455	0.2448427161120297	
O 0.2038970043190093	0.24163550060246386	0.2517456742620297	
O 0.7961030076881426	0.7347595182025112	0.7448426942462033	

K_POINTS automatic
6 6 6 0 0 0
