
&CONTROL
    calculation   = 'vc-relax'
    restart_mode  = 'from_scratch'
    prefix        = 'Landau_13'
    pseudo_dir    = '/cluster/scratch/mnoe/QE/pps'
    outdir        = './'
    forc_conv_thr = 1.0d-7
    etot_conv_thr = 1.0d-7

/
&SYSTEM
    ibrav       = 0
    nat         = 32
    ntyp        = 2
    ecutwfc     = 120
    occupations = 'smearing'
    degauss     = 7.35d-4
    tot_charge  = -0.0
/
&ELECTRONS
    conv_thr    = 1.0d-8
    diagonalization = 'david'
/


&IONS
ion_dynamics = 'bfgs'
/

&CELL
cell_dynamics = 'bfgs'
cell_dofree = 'all'
/
CELL_PARAMETERS angstrom
        7.3236460686         0.0000000000         0.0000000000
        0.0000000000         7.7495899200         0.0000000000
        0.0000000000         0.0000000000         7.3236460686

ATOMIC_SPECIES
W 183.84 W_ONCV_LDA-4.0.upf
O 15.9994 O_ONCV_LDA-3.0.upf

ATOMIC_POSITIONS crystal
W 0.25	0.2766862342493132	0.0	 0 0 0
W 0.7499999724980291	0.7233137657506867	0.0	 0 0 0
W 0.25	0.22331378246955988	0.5	 0 0 0
W 0.7499999724980291	0.776686256534382	0.5	 0 0 0
W 0.7499999724980291	0.2766862342493132	0.5	 0 0 0
W 0.25	0.7233137657506867	0.5	 0 0 0
W 0.7499999724980291	0.22331378246955988	0.0	 0 0 0
W 0.25	0.776686256534382	0.0	 0 0 0
O 0.25	0.006910511956754371	0.0	 0 0 0
O 0.7499999724980291	0.9930894749469088	0.0	 0 0 0
O 0.25	0.4930894972319775	0.5	 0 0 0
O 0.7499999724980291	0.5069105250530912	0.5	 0 0 0
O 0.7499999724980291	0.006910511956754371	0.5	 0 0 0
O 0.25	0.9930894749469088	0.5	 0 0 0
O 0.7499999724980291	0.4930894972319775	0.0	 0 0 0
O 0.25	0.5069105250530912	0.0	 0 0 0
O 0.5	0.25	0.46219088657228924	 0 0 0
O 0.5	0.7500000107830977	0.5378091371505257	 0 0 0
O 0.0	0.25	0.9621909195722893	 0 0 0
O 0.0	0.7500000107830977	0.03780908129926155	 0 0 0
O 0.5	0.25	0.03780908129926155	 0 0 0
O 0.5	0.7500000107830977	0.9621909195722893	 0 0 0
O 0.0	0.25	0.5378091371505257	 0 0 0
O 0.0	0.7500000107830977	0.46219088657228924	 0 0 0
O 0.7121908903514452	0.25	0.7499999724980291	 0 0 0
O 0.2878090859257397	0.7500000107830977	0.25	 0 0 0
O 0.7878091646524966	0.25	0.25	 0 0 0
O 0.21219090257228929	0.7500000107830977	0.7499999724980291	 0 0 0
O 0.2878090859257397	0.25	0.7499999724980291	 0 0 0
O 0.7121908903514452	0.7500000107830977	0.25	 0 0 0
O 0.21219090257228929	0.25	0.25	 0 0 0
O 0.7878091646524966	0.7500000107830977	0.7499999724980291	 0 0 0

K_POINTS automatic
6 6 6 0 0 0
