&CONTROL
    calculation   = 'scf'
    restart_mode  = 'from_scratch'
    prefix        = 'Landau_9'
    pseudo_dir    = '/cluster/scratch/mnoe/QE/pps'
    outdir        = './'
/
&SYSTEM
    ibrav       = 0
    nat         = 32
    ntyp        = 2
    ecutwfc     = 120
    occupations = 'smearing'
    degauss     = 7.35d-4
    tot_charge  = -1.0
/
&ELECTRONS
    conv_thr    = 1.0d-8
    diagonalization = 'david'
/

CELL_PARAMETERS angstrom
   7.351361478   0.000000000   0.000000000
   0.000000000   7.697433535   0.000000000
   0.000000000   0.000000000   7.362780228

ATOMIC_SPECIES
W 183.84 W_ONCV_LDA-4.0.upf
O 15.9994 O_ONCV_LDA-3.0.upf

ATOMIC_POSITIONS crystal
W 0.241680002	0.2800704708243574	0.00786	
W 0.758319988487464	0.7199295291756427	0.992140017	
W 0.258319998	0.21992954477017612	0.507860015	
W 0.7416799924874639	0.780070458254896	0.492139985	
W 0.758319988487464	0.2800704708243574	0.492139985	
W 0.241680002	0.7199295291756427	0.507860015	
W 0.7416799924874639	0.21992954477017612	0.992140017	
W 0.258319998	0.780070458254896	0.00786	
O 0.234640005	0.00783247836420272	0.00245	
O 0.765360017487464	0.9921675321505937	0.997550035	
O 0.265359995	0.49216751958113236	0.502449998	
O 0.7346399634874639	0.5078324678494063	0.497550002	
O 0.765360017487464	0.00783247836420272	0.497550002	
O 0.234640005	0.9921675321505937	0.502449998	
O 0.7346399634874639	0.49216751958113236	0.997550035	
O 0.265359995	0.5078324678494063	0.00245	
O 0.502279991	0.234249988	0.4539157622729965	
O 0.497720009	0.7657500049180026	0.5460842243466091	
O 0.997719977	0.265749996	0.9539157952729965	
O 0.002279997	0.7342500429180026	0.046084237080065316	
O 0.497720009	0.234249988	0.046084237080065316	
O 0.502279991	0.7657500049180026	0.9539157952729965	
O 0.002279997	0.265749996	0.5460842243466091	
O 0.997719977	0.7342500429180026	0.4539157622729965	
O 0.703915785165927	0.246560002	0.7465500364874639	
O 0.29608422821446734	0.7534400229180026	0.25344997	
O 0.7960842338591452	0.253439998	0.246550079	
O 0.20391577827299653	0.7465599649180026	0.7534499444874639	
O 0.29608422821446734	0.246560002	0.7534499444874639	
O 0.703915785165927	0.7534400229180026	0.246550079	
O 0.20391577827299653	0.253439998	0.25344997	
O 0.7960842338591452	0.7465599649180026	0.7465500364874639	

K_POINTS automatic
6 6 6 0 0 0
