&CONTROL
    calculation   = 'scf'
    restart_mode  = 'from_scratch'
    prefix        = 'Landau_2'
    pseudo_dir    = '/cluster/scratch/mnoe/QE/pps'
    outdir        = './'
/
&SYSTEM
    ibrav       = 0
    nat         = 32
    ntyp        = 2
    ecutwfc     = 120
    occupations = 'smearing'
    degauss     = 7.35d-4
    tot_charge  = -1.0
/
&ELECTRONS
    conv_thr    = 1.0d-8
    diagonalization = 'david'
/

CELL_PARAMETERS angstrom
   7.330522916   0.000000000   0.000000000
   0.000000000   7.742007400   0.000000000
   0.000000000   0.000000000   7.330777481

ATOMIC_SPECIES
W 183.84 W_ONCV_LDA-4.0.upf
O 15.9994 O_ONCV_LDA-3.0.upf

ATOMIC_POSITIONS crystal
W 0.24684123244489578	0.28146403538117337	0.00036107209340747147	
W 0.7505412311122666	0.7185359646188266	-0.0031329258065925336	
W 0.2531587675551042	0.21853597975037836	0.5003610718198508	
W 0.7494587664011259	0.7814640084592763	0.49686706961985083	
W 0.7531587630011259	0.28146403538117337	0.49963892818014916	
W 0.2494587675551042	0.7185359646188266	0.5031329303801492	
W 0.7468412345122666	0.21853597975037836	-0.0003610697934074772	
W 0.2505412324448958	0.7814640084592763	0.003132928106592528	
O 0.2461802092030965	0.008212126677641993	-0.002013849537191184	
O 0.7530062047982692	-0.008212106440227865	-0.0030998502371911802	
O 0.25381978672470534	0.4917878666378751	0.49798614539061065	
O 0.7469937904676704	0.5082121064402279	0.49690014729061066	
O 0.7538197832676705	0.008212126677641993	0.5020138525080309	
O 0.24699378572470534	-0.008212106440227865	0.5030998506080309	
O 0.7461802119982691	0.4917878666378751	0.0020138488371911883	
O 0.2530062102030965	0.5082121064402279	0.0030998495371911843	
O 0.5010805985392288	0.2459266489146767	0.45050822273755764	
O 0.5000685969392289	0.7529286383116788	0.5494917486036488	
O -0.0010805969697476204	0.2540733480853233	0.9505082557375576	
O -6.859706974761913e-05	0.7470713462046934	0.04949178957899452	
O 0.49891940146077113	0.2459266489146767	0.04949178957899452	
O 0.4999314030607711	0.7529286383116788	0.9505082557375576	
O 0.0010805935392288752	0.2540733480853233	0.5494917486036488	
O 6.859363922887387e-05	0.7470713462046934	0.45050822273755764	
O 0.7005082535011786	0.251858775396444	0.7496120727535864	
O 0.29949177515761505	0.753386769940899	0.2511460695862156	
O 0.7994917507084761	0.24814122235610309	0.24961207888621562	
O 0.20050823873755763	0.7466132146005581	0.7511460699535865	
O 0.29949177515761505	0.251858775396444	0.7503879292547119	
O 0.7005082535011786	0.753386769940899	0.24885393691378438	
O 0.20050823873755763	0.24814122235610309	0.25038792761378437	
O 0.7994917507084761	0.7466132146005581	0.7488539320547118	

K_POINTS automatic
6 6 6 0 0 0
