
&CONTROL
    calculation   = 'vc-relax'
    restart_mode  = 'from_scratch'
    prefix        = 'Landau_32'
    pseudo_dir    = '/cluster/scratch/mnoe/QE/pps'
    outdir        = './'
    forc_conv_thr = 1.0d-7
    etot_conv_thr = 1.0d-7

/
&SYSTEM
    ibrav       = 0
    nat         = 32
    ntyp        = 2
    ecutwfc     = 120
    occupations = 'smearing'
    degauss     = 7.35d-4
    tot_charge  = -0.0
/
&ELECTRONS
    conv_thr    = 1.0d-8
    diagonalization = 'david'
/


&IONS
ion_dynamics = 'bfgs'
/

&CELL
cell_dynamics = 'bfgs'
cell_dofree = 'all'
/
CELL_PARAMETERS angstrom
        7.3236460686         0.0000000000         0.0000000000
        0.0000000000         7.7495899200         0.0000000000
        0.0000000000         0.0000000000         7.3236460686

ATOMIC_SPECIES
W 183.84 W_ONCV_LDA-4.0.upf
O 15.9994 O_ONCV_LDA-3.0.upf

ATOMIC_POSITIONS crystal
W 0.2352	0.28751864128457766	0.013980001	 0 0 0
W 0.7648	0.7124813587154223	0.98602002	 0 0 0
W 0.264800016	0.21248136621721878	0.51397998	 0 0 0
W 0.7352	0.7875186102845777	0.486019987	 0 0 0
W 0.7648	0.28751864128457766	0.486019987	 0 0 0
W 0.2352	0.7124813587154223	0.51397998	 0 0 0
W 0.7352	0.21248136621721878	0.98602002	 0 0 0
W 0.264800016	0.7875186102845777	0.013980001	 0 0 0
O 0.222699997	0.019027435176988846	0.00435	 0 0 0
O 0.777299987	0.9809726013197776	0.995650004	 0 0 0
O 0.277299987	0.4809725548234902	0.504349996	 0 0 0
O 0.722700013	0.5190274296727971	0.495650004	 0 0 0
O 0.777299987	0.019027435176988846	0.495650004	 0 0 0
O 0.222699997	0.9809726013197776	0.504349996	 0 0 0
O 0.722700013	0.4809725548234902	0.995650004	 0 0 0
O 0.277299987	0.5190274296727971	0.00435	 0 0 0
O 0.504050025	0.221990001	0.4787880166636327	 0 0 0
O 0.495949975	0.778010015	0.5212119828285827	 0 0 0
O 0.995949975	0.278010015	0.9787880256693813	 0 0 0
O 0.004050016	0.721990016	0.021212021331097758	 0 0 0
O 0.495949975	0.221990001	0.021212021331097758	 0 0 0
O 0.504050025	0.778010015	0.9787880256693813	 0 0 0
O 0.004050016	0.278010015	0.5212119828285827	 0 0 0
O 0.995949975	0.721990016	0.4787880166636327	 0 0 0
O 0.7287880661596805	0.243880005	0.743860013	 0 0 0
O 0.27121200733061873	0.756119995	0.256139987	 0 0 0
O 0.7712119663325349	0.256119995	0.243860013	 0 0 0
O 0.2287880331635129	0.743880036	0.756139987	 0 0 0
O 0.27121200733061873	0.243880005	0.756139987	 0 0 0
O 0.7287880661596805	0.756119995	0.243860013	 0 0 0
O 0.2287880331635129	0.256119995	0.256139987	 0 0 0
O 0.7712119663325349	0.743880036	0.743860013	 0 0 0

K_POINTS automatic
6 6 6 0 0 0
