
&CONTROL
    calculation   = 'vc-relax'
    restart_mode  = 'from_scratch'
    prefix        = 'Landau_34'
    pseudo_dir    = '/cluster/scratch/mnoe/QE/pps'
    outdir        = './'
    forc_conv_thr = 1.0d-7
    etot_conv_thr = 1.0d-7

/
&SYSTEM
    ibrav       = 0
    nat         = 32
    ntyp        = 2
    ecutwfc     = 120
    occupations = 'smearing'
    degauss     = 7.35d-4
    tot_charge  = -0.0
/
&ELECTRONS
    conv_thr    = 1.0d-8
    diagonalization = 'david'
/


&IONS
ion_dynamics = 'bfgs'
/

&CELL
cell_dynamics = 'bfgs'
cell_dofree = 'all'
/
CELL_PARAMETERS angstrom
        7.3236460686         0.0000000000         0.0000000000
        0.0000000000         7.7495899200         0.0000000000
        0.0000000000         0.0000000000         7.3236460686

ATOMIC_SPECIES
W 183.84 W_ONCV_LDA-4.0.upf
O 15.9994 O_ONCV_LDA-3.0.upf

ATOMIC_POSITIONS crystal
0.2805700040000001	0.281860003	0.250870031	 0 0 0
-0.2508700249999999	0.718139997	-0.7194299630000001	 0 0 0
0.21942997900000005	0.218140012	0.750870009	 0 0 0
0.7508700309999999	0.781859972	0.7805700210000001	 0 0 0
0.7194299690000001	0.281860003	0.7491300080000001	 0 0 0
0.25086999200000004	0.718139997	0.719429996	 0 0 0
-0.21942996299999995	0.218140012	-0.750870025	 0 0 0
0.2491299910000001	0.781859972	0.21942996900000006	 0 0 0
0.283629986	0.00832	0.27439001999999996	 0 0 0
-0.274390005	0.991680023	-0.7163699650000002	 0 0 0
0.21636999700000004	0.491679992	0.774389973	 0 0 0
0.7743900199999999	0.508319977	0.78362997	 0 0 0
0.7163699800000001	0.00832	0.725609978	 0 0 0
0.274389989	0.991680023	0.716369981	 0 0 0
-0.21636996500000005	0.491679992	-0.7743900050000001	 0 0 0
0.22560999400000004	0.508319977	0.21636998000000002	 0 0 0
0.48918003	0.286259998	0.6995400039999999	 0 0 0
0.49778001000000005	0.7267399479999999	0.800459963	 0 0 0
-0.9891799809999999	0.21374000200000004	1.199540037	 0 0 0
0.002220031000000038	0.773259962	0.300460012	 0 0 0
0.51081997	0.286259998	0.300460012	 0 0 0
0.50221999	0.7267399479999999	1.199540037	 0 0 0
-0.01081997799999998	0.21374000200000004	0.800459963	 0 0 0
-1.00221999	0.773259962	0.6995400039999999	 0 0 0
0.6995400369999999	0.226740008	2.00221999	 0 0 0
0.300459996	0.7137399409999999	0.48918003000000004	 0 0 0
0.800459963	0.27325999200000006	0.502220039	 0 0 0
0.19954001999999996	0.786259969	1.98918003	 0 0 0
0.300459996	0.226740008	0.997780018	 0 0 0
0.699540037	0.7137399409999999	0.5108200190000001	 0 0 0
0.19954002	0.27325999200000006	0.49778001000000005	 0 0 0
0.800459963	0.786259969	1.010819978	 0 0 0

K_POINTS automatic
6 6 6 0 0 0
