&CONTROL
    calculation   = 'scf'
    restart_mode  = 'from_scratch'
    prefix        = 'Landau_20'
    pseudo_dir    = '/cluster/scratch/mnoe/QE/pps'
    outdir        = './'
/
&SYSTEM
    ibrav       = 0
    nat         = 32
    ntyp        = 2
    ecutwfc     = 120
    occupations = 'smearing'
    degauss     = 7.35d-4
    tot_charge  = -0.6
/
&ELECTRONS
    conv_thr    = 1.0d-8
    diagonalization = 'david'
/

CELL_PARAMETERS angstrom
   7.392216223   0.000000000   0.000000000
   0.000000000   7.439712652   0.000000000
   0.000000000   0.000000000   7.392216223

ATOMIC_SPECIES
W 183.84 W_ONCV_LDA-4.0.upf
O 15.9994 O_ONCV_LDA-3.0.upf

ATOMIC_POSITIONS crystal
W 0.214029989	0.27986347480986346	-0.0010299819999999987	
W 0.7510299943871445	0.7201365251901366	-0.03596996100000005	
W 0.285970011	0.22013654085344003	0.498970011	
W 0.7489700073871445	0.779863464372271	0.464029989	
W 0.7859699733871445	0.27986347480986346	0.501029989	
W 0.24897001100000002	0.7201365251901366	0.535970011	
W 0.7140300283871445	0.22013654085344003	0.001030004999999945	
W 0.251029989	0.779863464372271	0.035969983999999997	
O 0.21043998	0.007776086511089849	-0.028699964000000012	
O 0.7786999463871446	-0.007776077440462712	-0.03955997099999997	
O 0.289559971	0.4922239121219449	0.471299977	
O 0.7213000253871444	0.5077760774404627	0.46043999599999996	
O 0.7895599533871445	0.007776086511089849	0.528700006	
O 0.22129996100000002	-0.007776077440462712	0.539559987	
O 0.7104400183871445	0.4922239121219449	0.028699957000000054	
O 0.27869999	0.5077760774404627	0.03955996400000001	
O 0.512729994	0.20735000299999998	0.4544219082564147	
O 0.502609978	0.7773700259495521	0.5455780806325998	
O -0.012729962000000011	0.29264996699999996	0.9544219412564147	
O -0.0026099629999999964	0.7226300849495522	0.04557808917108811	
O 0.487270006	0.20735000299999998	0.04557808917108811	
O 0.49739002199999993	0.7773700259495521	0.9544219412564147	
O 0.012729944000000017	0.29264996699999996	0.5455780806325998	
O 0.0026099450000000024	0.7226300849495522	0.4544219082564147	
O 0.7044219299802558	0.27736997099999994	0.7473900443871445	
O 0.29557808113072975	0.7926500529495522	0.262729994	
O 0.7955780912454553	0.22262999899999997	0.247390087	
O 0.20442192425641473	0.7073500579495521	0.7627300163871445	
O 0.29557808113072975	0.27736997099999994	0.7526100173871445	
O 0.7044219299802558	0.7926500529495522	0.23727007100000005	
O 0.20442192425641473	0.22262999899999997	0.25260997800000007	
O 0.7955780912454553	0.7073500579495521	0.7372700453871445	

K_POINTS automatic
6 6 6 0 0 0
