
&CONTROL
    calculation   = 'vc-relax'
    restart_mode  = 'from_scratch'
    prefix        = 'Landau_1'
    pseudo_dir    = '/cluster/scratch/mnoe/QE/pps'
    outdir        = './'
    forc_conv_thr = 1.0d-7
    etot_conv_thr = 1.0d-7

/
&SYSTEM
    ibrav       = 0
    nat         = 32
    ntyp        = 2
    ecutwfc     = 120
    occupations = 'smearing'
    degauss     = 7.35d-4
    tot_charge  = -0.0
/
&ELECTRONS
    conv_thr    = 1.0d-8
    diagonalization = 'david'
/


&IONS
ion_dynamics = 'bfgs'
/

&CELL
cell_dynamics = 'bfgs'
cell_dofree = 'all'
/
CELL_PARAMETERS angstrom
        7.3236460686         0.0000000000         0.0000000000
        0.0000000000         7.7495899200         0.0000000000
        0.0000000000         0.0000000000         7.3236460686

ATOMIC_SPECIES
W 183.84 W_ONCV_LDA-4.0.upf
O 15.9994 O_ONCV_LDA-3.0.upf

ATOMIC_POSITIONS crystal
W 0.24924568081348838	0.28108500002837045	-0.0003361649448510854	 0 0 0
W 0.7497075461024952	0.7189149999716296	-0.0007723184667541792	 0 0 0
W 0.25075431918651164	0.21891501522910758	0.4996638346706745	 0 0 0
W 0.7502924463472657	0.7810849770101896	0.4992276806120051	 0 0 0
W 0.7507543145550627	0.28108500002837045	0.5003361653293256	 0 0 0
W 0.2502924505542948	0.7189149999716296	0.5007723193879948	 0 0 0
W 0.7492456778946982	0.21891501522910758	0.00033616523195861283	 0 0 0
W 0.2497075494457052	0.7810849770101896	0.0007723187538617066	 0 0 0
O 0.24941127940010013	0.008108866206699573	-0.000954718833074516	 0 0 0
O 0.750263360205104	-0.008108848613738347	-0.0010902836054787074	 0 0 0
O 0.25058871941152433	0.4918911283680808	0.4990452798537206	 0 0 0
O 0.7497366313458854	0.5081088486137384	0.49890971540587276	 0 0 0
O 0.7505887156588741	0.008108866206699573	0.5009547202136873	 0 0 0
O 0.249736634074935	-0.008108848613738347	0.501090284661535	 0 0 0
O 0.7494112758921154	0.4918911283680808	0.0009547187456939645	 0 0 0
O 0.2502633647366895	0.5081088486137384	0.0010902835180981558	 0 0 0
O 0.5002929492226224	0.24933408536823243	0.45143503875313995	 0 0 0
O 0.5001666217105161	0.7502081300211971	0.5485649367436353	 0 0 0
O -0.00029294768722123266	0.2506659142572795	0.9514350717531399	 0 0 0
O -0.00016662038732486503	0.7497918502796219	0.048564970037474994	 0 0 0
O 0.49970705077737765	0.24933408536823243	0.048564970037474994	 0 0 0
O 0.49983337828948393	0.7502081300211971	0.9514350717531399	 0 0 0
O 0.00029294859847556155	0.2506659142572795	0.5485649367436353	 0 0 0
O 0.0001666212985791939	0.7497918502796219	0.45143503875313995	 0 0 0
O 0.7014350673760134	0.25095349568010705	0.7500558459391237	 0 0 0
O 0.29856495712721143	0.7511442256768875	0.25024733695893137	 0 0 0
O 0.7985649408632839	0.24904650342112156	0.2500558498815145	 0 0 0
O 0.20143505475313997	0.7488557546064555	0.7502473338279313	 0 0 0
O 0.29856495712721143	0.25095349568010705	0.74994414830818	 0 0 0
O 0.7014350673760134	0.7511442256768875	0.24975266385245948	 0 0 0
O 0.20143505475313997	0.24904650342112156	0.24994415092987632	 0 0 0
O 0.7985649408632839	0.7488557546064555	0.7497526604193724	 0 0 0

K_POINTS automatic
6 6 6 0 0 0
