
&CONTROL
    calculation   = 'vc-relax'
    restart_mode  = 'from_scratch'
    prefix        = 'Landau_39'
    pseudo_dir    = '/cluster/scratch/mnoe/QE/pps'
    outdir        = './'
    forc_conv_thr = 1.0d-7
    etot_conv_thr = 1.0d-7

/
&SYSTEM
    ibrav       = 0
    nat         = 32
    ntyp        = 2
    ecutwfc     = 120
    occupations = 'smearing'
    degauss     = 7.35d-4
    tot_charge  = -0.0
/
&ELECTRONS
    conv_thr    = 1.0d-8
    diagonalization = 'david'
/


&IONS
ion_dynamics = 'bfgs'
/

&CELL
cell_dynamics = 'bfgs'
cell_dofree = 'all'
/
CELL_PARAMETERS angstrom
        7.3236460686         0.0000000000         0.0000000000
        0.0000000000         7.7495899200         0.0000000000
        0.0000000000         0.0000000000         7.3236460686

ATOMIC_SPECIES
W 183.84 W_ONCV_LDA-4.0.upf
O 15.9994 O_ONCV_LDA-3.0.upf

ATOMIC_POSITIONS crystal
W 0.23196	0.276065723897927	0.01704	 0 0 0
W 0.76804000219961	0.7239342761020731	0.982959956	 0 0 0
W 0.26804	0.2239342930270973	0.517040012	 0 0 0
W 0.73195993619961	0.7760657525736827	0.482959988	 0 0 0
W 0.76804000219961	0.276065723897927	0.482959988	 0 0 0
W 0.23196	0.7239342761020731	0.517040012	 0 0 0
W 0.73195993619961	0.2239342930270973	0.982959956	 0 0 0
W 0.26804	0.7760657525736827	0.01704	 0 0 0
O 0.216730001	0.006741466534909227	0.0053	 0 0 0
O 0.78327000119961	0.9932585160395788	0.994700022	 0 0 0
O 0.283269999	0.4932585447153346	0.505299978	 0 0 0
O 0.71672993719961	0.5067414839604212	0.494700022	 0 0 0
O 0.78327000119961	0.006741466534909227	0.494700022	 0 0 0
O 0.216730001	0.9932585160395788	0.505299978	 0 0 0
O 0.71672993719961	0.4932585447153346	0.994700022	 0 0 0
O 0.283269999	0.5067414839604212	0.0053	 0 0 0
O 0.504930013	0.215869991	0.4637081564713808	 0 0 0
O 0.495069987	0.7841299918753657	0.5362918740544236	 0 0 0
O 0.995069987	0.284129994	0.9637081894713808	 0 0 0
O 0.004930019	0.7158700348753656	0.03629180562793659	 0 0 0
O 0.495069987	0.215869991	0.03629180562793659	 0 0 0
O 0.504930013	0.7841299918753657	0.9637081894713808	 0 0 0
O 0.004930019	0.284129994	0.5362918740544236	 0 0 0
O 0.995069987	0.7158700348753656	0.4637081564713808	 0 0 0
O 0.7137081567459664	0.242549998	0.7425199141996099	 0 0 0
O 0.28629181272822907	0.7574499848753656	0.257480022	 0 0 0
O 0.7862919048548136	0.257449986	0.242519978	 0 0 0
O 0.21370817247138083	0.7425500428753656	0.75748002419961	 0 0 0
O 0.28629181272822907	0.242549998	0.75748002419961	 0 0 0
O 0.7137081567459664	0.7574499848753656	0.242519978	 0 0 0
O 0.21370817247138083	0.257449986	0.257480022	 0 0 0
O 0.7862919048548136	0.7425500428753656	0.7425199141996099	 0 0 0

K_POINTS automatic
6 6 6 0 0 0
