&CONTROL
    calculation   = 'scf'
    restart_mode  = 'from_scratch'
    prefix        = 'Landau_13'
    pseudo_dir    = '/cluster/scratch/mnoe/QE/pps'
    outdir        = './'
/
&SYSTEM
    ibrav       = 0
    nat         = 32
    ntyp        = 2
    ecutwfc     = 120
    occupations = 'smearing'
    degauss     = 7.35d-4
    tot_charge  = -0.6
/
&ELECTRONS
    conv_thr    = 1.0d-8
    diagonalization = 'david'
/

CELL_PARAMETERS angstrom
   7.360567392   0.000000000   0.000000000
   0.000000000   7.609223095   0.000000000
   0.000000000   0.000000000   7.360567392

ATOMIC_SPECIES
W 183.84 W_ONCV_LDA-4.0.upf
O 15.9994 O_ONCV_LDA-3.0.upf

ATOMIC_POSITIONS crystal
W 0.22661949285	0.28056225967641124	-0.0006694882999999999	
W 0.7506694963516439	0.7194377403235888	-0.02338047465000003	
W 0.27338050715	0.219437755754736	0.49933050715	
W 0.7493305048016439	0.7805622420419762	0.47661949285	
W 0.773380482701644	0.28056225967641124	0.50066949285	
W 0.24933050715000002	0.7194377403235888	0.52338050715	
W 0.7266195184516439	0.219437755754736	0.0006695032499999653	
W 0.25066949285	0.7805622420419762	0.0233804896	
O 0.224285987	0.007966456232208402	-0.018654976600000005	
O 0.768654965151644	-0.007966442286300755	-0.02571398114999998	
O 0.27571398115	0.49203354007926414	0.48134498505	
O 0.731345016501644	0.5079664422863007	0.4742859974	
O 0.775713969701644	0.007966456232208402	0.5186550039	
O 0.23134497465	-0.007966442286300755	0.52571399155	
O 0.7242860119516439	0.49203354007926414	0.01865497205000003	
O 0.2686549935	0.5079664422863007	0.025713976600000008	
O 0.5082744961	0.22227750194999998	0.45271324176666955	
O 0.5016964857	0.7677905116172088	0.5472867394611899	
O -0.008274475300000007	0.27772247855	0.9527132747666696	
O -0.0016964759499999973	0.7322095499672089	0.04728676216120727	
O 0.49172550389999997	0.22227750194999998	0.04728676216120727	
O 0.4983035143	0.7677905116172088	0.9527132747666696	
O 0.00827446360000001	0.27772247855	0.5472867394611899	
O 0.001696464250000002	0.7322095499672089	0.45271324176666955	
O 0.7027132674371662	0.26779048115	0.7483035288516439	
O 0.29728675133497434	0.7777225291672089	0.25827449610000003	
O 0.797286746359546	0.23220949935	0.24830355655	
O 0.20271325776666957	0.7222775324172088	0.758274510651644	
O 0.29728675133497434	0.26779048115	0.7516965113016439	
O 0.7027132674371662	0.7777225291672089	0.24172554615000003	
O 0.20271325776666957	0.23220949935	0.2516964857	
O 0.797286746359546	0.7222775324172088	0.7417255295016439	

K_POINTS automatic
6 6 6 0 0 0
