
&CONTROL
    calculation   = 'vc-relax'
    restart_mode  = 'from_scratch'
    prefix        = 'Landau_20'
    pseudo_dir    = '/cluster/scratch/mnoe/QE/pps'
    outdir        = './'
    forc_conv_thr = 1.0d-7
    etot_conv_thr = 1.0d-7

/
&SYSTEM
    ibrav       = 0
    nat         = 32
    ntyp        = 2
    ecutwfc     = 120
    occupations = 'smearing'
    degauss     = 7.35d-4
    tot_charge  = -0.0
/
&ELECTRONS
    conv_thr    = 1.0d-8
    diagonalization = 'david'
/


&IONS
ion_dynamics = 'bfgs'
/

&CELL
cell_dynamics = 'bfgs'
cell_dofree = 'all'
/
CELL_PARAMETERS angstrom
        7.3236460686         0.0000000000         0.0000000000
        0.0000000000         7.7495899200         0.0000000000
        0.0000000000         0.0000000000         7.3236460686

ATOMIC_SPECIES
W 183.84 W_ONCV_LDA-4.0.upf
O 15.9994 O_ONCV_LDA-3.0.upf

ATOMIC_POSITIONS crystal
W 0.2430703535992542	0.2740058401749151	0.006543834029766264	 0 0 0
W 0.7569295982829409	0.7259941598250849	-0.00654382541453022	 0 0 0
W 0.25692964640074584	0.22599417743446115	0.506543837775521	 0 0 0
W 0.7430703182170156	0.7740058900655822	0.4934561622244789	 0 0 0
W 0.7569295982829409	0.2740058401749151	0.4934561622244789	 0 0 0
W 0.2430703535992542	0.7259941598250849	0.506543837775521	 0 0 0
W 0.7430703182170156	0.22599417743446115	-0.00654382541453022	 0 0 0
W 0.25692964640074584	0.7740058900655822	0.006543834029766264	 0 0 0
O 0.23721573395984552	0.006180293119944334	0.002033944862489179	 0 0 0
O 0.7627842059359342	-0.006180324916847866	-0.0020339474845175315	 0 0 0
O 0.2627842600469468	0.49381972497381926	0.5020339351235267	 0 0 0
O 0.7372157105640224	0.5061803249168478	0.4979660525154824	 0 0 0
O 0.7627842059359342	0.006180293119944334	0.4979660525154824	 0 0 0
O 0.23721573395984552	-0.006180324916847866	0.5020339351235267	 0 0 0
O 0.7372157105640224	0.49381972497381926	-0.0020339474845175315	 0 0 0
O 0.2627842600469468	0.5061803249168478	0.002033944862489179	 0 0 0
O 0.5018953549310781	0.2368861127805154	0.4687449774713403	 0 0 0
O 0.4981046450689219	0.7631139169787622	0.5312550756380794	 0 0 0
O -0.0018953672920689942	0.26311387598222014	0.9687450104713403	 0 0 0
O 0.0018953362023040555	0.7368861537770575	0.0312549654661216	 0 0 0
O 0.4981046450689219	0.2368861127805154	0.0312549654661216	 0 0 0
O 0.5018953549310781	0.7631139169787622	0.9687450104713403	 0 0 0
O 0.0018953362023040555	0.26311387598222014	0.5312550756380794	 0 0 0
O -0.0018953672920689942	0.7368861537770575	0.4687449774713403	 0 0 0
O 0.7187449661119423	0.2471382440733835	0.747126969553834	 0 0 0
O 0.2812549807786378	0.7528617972977341	0.2528729886961444	 0 0 0
O 0.7812551173881012	0.25286175592661647	0.2471270356512619	 0 0 0
O 0.21874499347134033	0.7471382738326612	0.7528729469461226	 0 0 0
O 0.2812549807786378	0.2471382440733835	0.7528729469461226	 0 0 0
O 0.7187449661119423	0.7528617972977341	0.2471270356512619	 0 0 0
O 0.21874499347134033	0.25286175592661647	0.2528729886961444	 0 0 0
O 0.7812551173881012	0.7471382738326612	0.747126969553834	 0 0 0

K_POINTS automatic
6 6 6 0 0 0
