
&CONTROL
    calculation   = 'vc-relax'
    restart_mode  = 'from_scratch'
    prefix        = 'Landau_6'
    pseudo_dir    = '/cluster/scratch/mnoe/QE/pps'
    outdir        = './'
    forc_conv_thr = 1.0d-7
    etot_conv_thr = 1.0d-7

/
&SYSTEM
    ibrav       = 0
    nat         = 32
    ntyp        = 2
    ecutwfc     = 120
    occupations = 'smearing'
    degauss     = 7.35d-4
    tot_charge  = -0.0
/
&ELECTRONS
    conv_thr    = 1.0d-8
    diagonalization = 'david'
/


&IONS
ion_dynamics = 'bfgs'
/

&CELL
cell_dynamics = 'bfgs'
cell_dofree = 'all'
/
CELL_PARAMETERS angstrom
        7.3236460686         0.0000000000         0.0000000000
        0.0000000000         7.7495899200         0.0000000000
        0.0000000000         0.0000000000         7.3236460686

ATOMIC_SPECIES
W 183.84 W_ONCV_LDA-4.0.upf
O 15.9994 O_ONCV_LDA-3.0.upf

ATOMIC_POSITIONS crystal
W 0.247229993	0.2803742904097249	0.00262	 0 0 0
W 0.752769982102464	0.7196257095902752	0.997380027	 0 0 0
W 0.252770007	0.2196257250838711	0.502619973	 0 0 0
W 0.747230002102464	0.7803742747112007	0.497379995	 0 0 0
W 0.752769982102464	0.2803742904097249	0.497379995	 0 0 0
W 0.247229993	0.7196257095902752	0.502619973	 0 0 0
W 0.747230002102464	0.2196257250838711	0.997380027	 0 0 0
W 0.252770007	0.7803742747112007	0.00262	 0 0 0
O 0.244880007	0.007915247829463904	0.00082	 0 0 0
O 0.755120001102464	0.9920847648050203	0.999180046	 0 0 0
O 0.255119976	0.4920847491064961	0.500819987	 0 0 0
O 0.7448799831024641	0.5079152351949797	0.499179981	 0 0 0
O 0.755120001102464	0.007915247829463904	0.499179981	 0 0 0
O 0.244880007	0.9920847648050203	0.500819987	 0 0 0
O 0.7448799831024641	0.4920847491064961	0.999180046	 0 0 0
O 0.255119976	0.5079152351949797	0.00082	 0 0 0
O 0.500760019	0.244749996	0.4531728636080464	 0 0 0
O 0.499239981	0.7552499964039399	0.5468271196806215	 0 0 0
O 0.999239949	0.255250004	0.9531728966080464	 0 0 0
O 0.000760078	0.7447500494039399	0.04682713857126579	 0 0 0
O 0.499239981	0.244749996	0.04682713857126579	 0 0 0
O 0.500760019	0.7552499964039399	0.9531728966080464	 0 0 0
O 0.000760078	0.255250004	0.5468271196806215	 0 0 0
O 0.999239949	0.7447500494039399	0.4531728636080464	 0 0 0
O 0.7031728882169145	0.248850006	0.748849986102464	 0 0 0
O 0.2968271284944177	0.75115003240394	0.251150006	 0 0 0
O 0.7968271275781573	0.251150009	0.248849994	 0 0 0
O 0.20317287960804636	0.7488500134039399	0.7511499981024641	 0 0 0
O 0.2968271284944177	0.248850006	0.7511499981024641	 0 0 0
O 0.7031728882169145	0.75115003240394	0.248849994	 0 0 0
O 0.20317287960804636	0.251150009	0.251150006	 0 0 0
O 0.7968271275781573	0.7488500134039399	0.748849986102464	 0 0 0

K_POINTS automatic
6 6 6 0 0 0
