&CONTROL
    calculation   = 'scf'
    restart_mode  = 'from_scratch'
    prefix        = 'Landau_8'
    pseudo_dir    = '/cluster/scratch/mnoe/QE/pps'
    outdir        = './'
/
&SYSTEM
    ibrav       = 0
    nat         = 32
    ntyp        = 2
    ecutwfc     = 120
    occupations = 'smearing'
    degauss     = 7.35d-4
    tot_charge  = -0.2
/
&ELECTRONS
    conv_thr    = 1.0d-8
    diagonalization = 'david'
/

CELL_PARAMETERS angstrom
   7.385996406   0.000000000   0.000000000
   0.000000000   7.678897223   0.000000000
   0.000000000   0.000000000   7.394274364

ATOMIC_SPECIES
W 183.84 W_ONCV_LDA-4.0.upf
O 15.9994 O_ONCV_LDA-3.0.upf

ATOMIC_POSITIONS crystal
W 0.2426	0.2778981027592663	0.00699	
W 0.7574000109399042	0.7221018972407337	0.993009977	
W 0.2574	0.2221019135569896	0.506990023	
W 0.7425999469399043	0.7778981125632018	0.49301001	
W 0.7574000109399042	0.2778981027592663	0.49301001	
W 0.2426	0.7221018972407337	0.506990023	
W 0.7425999469399043	0.2221019135569896	0.993009977	
W 0.2574	0.7778981125632018	0.00699	
O 0.236350007	0.007240660878570411	0.00217	
O 0.7636499719399042	0.9927593344800539	0.997829951	
O 0.263649993	0.49275934428398943	0.502170017	
O 0.7363499859399042	0.5072406655199461	0.497830016	
O 0.7636499719399042	0.007240660878570411	0.497830016	
O 0.236350007	0.9927593344800539	0.502170017	
O 0.7363499859399042	0.49275934428398943	0.997829951	
O 0.263649993	0.5072406655199461	0.00217	
O 0.502019999	0.236	0.45922762962145697	
O 0.497980001	0.7640000357438398	0.5407723808149905	
O 0.997979968	0.263999985	0.959227662621457	
O 0.002020001	0.7360000347438398	0.04077234952337544	
O 0.497980001	0.236	0.04077234952337544	
O 0.502019999	0.7640000357438398	0.959227662621457	
O 0.002020001	0.263999985	0.5407723808149905	
O 0.997979968	0.7360000347438398	0.45922762962145697	
O 0.7092276402451053	0.246939995	0.7469299529399043	
O 0.2907723493184472	0.7530600097438398	0.253069993	
O 0.7907724018750862	0.25305999	0.246930007	
O 0.20922764562145696	0.7469400607438398	0.7530700049399042	
O 0.2907723493184472	0.246939995	0.7530700049399042	
O 0.7092276402451053	0.7530600097438398	0.246930007	
O 0.20922764562145696	0.25305999	0.253069993	
O 0.7907724018750862	0.7469400607438398	0.7469299529399043	

K_POINTS automatic
6 6 6 0 0 0
