&CONTROL
    calculation   = 'scf'
    restart_mode  = 'from_scratch'
    prefix        = 'Landau_20'
    pseudo_dir    = '/cluster/scratch/mnoe/QE/pps'
    outdir        = './'
/
&SYSTEM
    ibrav       = 0
    nat         = 32
    ntyp        = 2
    ecutwfc     = 120
    occupations = 'smearing'
    degauss     = 7.35d-4
    tot_charge  = -1.0
/
&ELECTRONS
    conv_thr    = 1.0d-8
    diagonalization = 'david'
/

CELL_PARAMETERS angstrom
   7.428042023   0.000000000   0.000000000
   0.000000000   7.523110367   0.000000000
   0.000000000   0.000000000   7.474852568

ATOMIC_SPECIES
W 183.84 W_ONCV_LDA-4.0.upf
O 15.9994 O_ONCV_LDA-3.0.upf

ATOMIC_POSITIONS crystal
W 0.2315	0.2739362025185326	0.017470001	
W 0.7684999408798086	0.7260637974814674	0.982530022	
W 0.2685	0.22606381511397924	0.517470011	
W 0.7314999748798086	0.7739362531264037	0.482529989	
W 0.7684999408798086	0.2739362025185326	0.482529989	
W 0.2315	0.7260637974814674	0.517470011	
W 0.7314999748798086	0.22606381511397924	0.982530022	
W 0.2685	0.7739362531264037	0.017470001	
O 0.215869987	0.006161321757140823	0.00543	
O 0.7841299218798086	0.9938386459601078	0.994569993	
O 0.284129997	0.4938386965679789	0.505429974	
O 0.7158699938798085	0.5061613540398922	0.494569993	
O 0.7841299218798086	0.006161321757140823	0.494569993	
O 0.215869987	0.9938386459601078	0.505429974	
O 0.7158699938798085	0.4938386965679789	0.994569993	
O 0.284129997	0.5061613540398922	0.00543	
O 0.505060008	0.214990001	0.4689152552429139	
O 0.494939992	0.7850100384876796	0.5310847986299809	
O 0.994939959	0.285009969	0.968915288242914	
O 0.005059958	0.7149900704876796	0.031084687046750884	
O 0.494939992	0.214990001	0.031084687046750884	
O 0.505060008	0.7850100384876796	0.968915288242914	
O 0.005059958	0.285009969	0.5310847986299809	
O 0.994939959	0.7149900704876796	0.4689152552429139	
O 0.7189152434902105	0.242360002	0.7423299718798085	
O 0.28108470263689445	0.7576400684876796	0.257669986	
O 0.7810848407501725	0.257639998	0.242330079	
O 0.21891527124291393	0.7423600414876795	0.7576699438798086	
O 0.28108470263689445	0.242360002	0.7576699438798086	
O 0.7189152434902105	0.7576400684876796	0.242330079	
O 0.21891527124291393	0.257639998	0.257669986	
O 0.7810848407501725	0.7423600414876795	0.7423299718798085	

K_POINTS automatic
6 6 6 0 0 0
