
&CONTROL
    calculation   = 'vc-relax'
    restart_mode  = 'from_scratch'
    prefix        = 'Landau_1'
    pseudo_dir    = '/cluster/scratch/mnoe/QE/pps'
    outdir        = './'
    forc_conv_thr = 1.0d-7
    etot_conv_thr = 1.0d-7

/
&SYSTEM
    ibrav       = 0
    nat         = 32
    ntyp        = 2
    ecutwfc     = 120
    occupations = 'smearing'
    degauss     = 7.35d-4
    tot_charge  = -0.0
/
&ELECTRONS
    conv_thr    = 1.0d-8
    diagonalization = 'david'
/


&IONS
ion_dynamics = 'bfgs'
/

&CELL
cell_dynamics = 'bfgs'
cell_dofree = 'all'
/
CELL_PARAMETERS angstrom
        7.3236460686         0.0000000000         0.0000000000
        0.0000000000         7.7495899200         0.0000000000
        0.0000000000         0.0000000000         7.3236460686

ATOMIC_SPECIES
W 183.84 W_ONCV_LDA-4.0.upf
O 15.9994 O_ONCV_LDA-3.0.upf

ATOMIC_POSITIONS crystal
W 0.24965351767996272	0.2814672948587458	0.00032719170148831324	 0 0 0
W 0.750346479914147	0.7185327051412542	-0.00032719127072651093	 0 0 0
W 0.2503464823200373	0.21853272027172305	0.5003271918887761	 0 0 0
W 0.7496535159108508	0.7814672679032791	0.49967280811122394	 0 0 0
W 0.750346479914147	0.2814672948587458	0.49967280811122394	 0 0 0
W 0.24965351767996272	0.7185327051412542	0.5003271918887761	 0 0 0
W 0.7496535159108508	0.21853272027172305	-0.00032719127072651093	 0 0 0
W 0.2503464823200373	0.7814672679032791	0.00032719170148831324	 0 0 0
O 0.24936078669799228	0.008213014655997216	0.00010169724312445895	 0 0 0
O 0.7506392102967967	-0.008212994395842372	-0.00010169737422587656	 0 0 0
O 0.2506392130023473	0.491786978648691	0.5001016967561763	 0 0 0
O 0.7493607855282011	0.5082129943958423	0.4998983026257741	 0 0 0
O 0.7506392102967967	0.008213014655997216	0.4998983026257741	 0 0 0
O 0.24936078669799228	-0.008212994395842372	0.5001016967561763	 0 0 0
O 0.7493607855282011	0.491786978648691	-0.00010169737422587656	 0 0 0
O 0.2506392130023473	0.5082129943958423	0.00010169724312445895	 0 0 0
O 0.5000947677465539	0.24934430563902577	0.450500252673567	 0 0 0
O 0.4999052322534461	0.7506556815989381	0.5494997186319039	 0 0 0
O -9.476836460344971e-05	0.250655693799111	0.950500285673567	 0 0 0
O 9.476681011520277e-05	0.7493442934388529	0.04949975967330608	 0 0 0
O 0.4999052322534461	0.24934430563902577	0.04949975967330608	 0 0 0
O 0.5000947677465539	0.7506556815989381	0.950500285673567	 0 0 0
O 9.476681011520277e-05	0.250655693799111	0.5494997186319039	 0 0 0
O -9.476836460344971e-05	0.7493442934388529	0.450500252673567	 0 0 0
O 0.7005002834555971	0.24985691220366918	0.7498563484776917	 0 0 0
O 0.2994997452389319	0.7501430756148867	0.2501436494348072	 0 0 0
O 0.799499720719405	0.2501430877963308	0.2498563517825631	 0 0 0
O 0.20050026867356702	0.749856899441633	0.7501436473473061	 0 0 0
O 0.2994997452389319	0.24985691220366918	0.7501436473473061	 0 0 0
O 0.7005002834555971	0.7501430756148867	0.2498563517825631	 0 0 0
O 0.20050026867356702	0.2501430877963308	0.2501436494348072	 0 0 0
O 0.799499720719405	0.749856899441633	0.7498563484776917	 0 0 0

K_POINTS automatic
6 6 6 0 0 0
