&CONTROL
    calculation   = 'scf'
    restart_mode  = 'from_scratch'
    prefix        = 'Landau_33'
    pseudo_dir    = '/cluster/scratch/mnoe/QE/pps'
    outdir        = './'
/
&SYSTEM
    ibrav       = 0
    nat         = 32
    ntyp        = 2
    ecutwfc     = 120
    occupations = 'smearing'
    degauss     = 7.35d-4
    tot_charge  = -0.1
/
&ELECTRONS
    conv_thr    = 1.0d-8
    diagonalization = 'david'
/

CELL_PARAMETERS angstrom
   7.458912489   0.000000000   0.000000000
   0.000000000   7.541293920   0.000000000
   0.000000000   0.000000000   7.427667222

ATOMIC_SPECIES
W 183.84 W_ONCV_LDA-4.0.upf
O 15.9994 O_ONCV_LDA-3.0.upf

ATOMIC_POSITIONS crystal
W        0.234740001	0.29306679112	0.014410001	
W        0.76525995	0.70693320888	0.985589955	
W        0.265259983	0.20693320903	0.514410012	
W        0.73474005	0.79306676012	0.485590021	
W       0.76525995	0.29306679112	0.485590021	
W       0.234740001	0.70693320888	0.514410012	
W       0.73474005	0.20693320903	0.985589955	
W       0.265259983	0.79306676012	0.014410001	
O        0.221849994	0.029525800990000003	0.00448	
O        0.778150023	0.97047424874	0.995519976	
O        0.278150023	0.47047418705000005	0.504479992	
O        0.721849977	0.5295258126400001	0.495520008	
O        0.778150023	0.029525800990000003	0.495520008	
O        0.221849994	0.97047424874	0.504479992	
O        0.721849977	0.47047418705000005	0.995519976	
O        0.278150023	0.5295258126400001	0.00448	
O    0.504169994	0.221119994	0.5074649436	
O    0.495830006	0.778880021	0.49253508774999993	
O    0.995829974	0.27887999	1.00746492908	
O    0.004169941	0.72112001	-0.007464884040000001	
O   0.495830006	0.221119994	-0.007464884040000001	
O   0.504169994	0.778880021	1.00746492908	
O   0.004169941	0.27887999	0.49253508774999993	
O   0.995829974	0.72112001	0.5074649436	
O   0.75746500927	0.243689993	0.743670017	
O   0.24253510392000002	0.756310007	0.256330016	
O   0.74253505508	0.256309991	0.243669984	
O   0.25746496059	0.743690024	0.756329983	
O   0.24253510392000002	0.243689993	0.756329983	
O   0.75746500927	0.756310007	0.243669984	
O   0.25746496059	0.256309991	0.256330016	
O   0.74253505508	0.743690024	0.743670017	

K_POINTS automatic
6 6 6 0 0 0
