
&CONTROL
    calculation   = 'vc-relax'
    restart_mode  = 'from_scratch'
    prefix        = 'Landau_37'
    pseudo_dir    = '/cluster/scratch/mnoe/QE/pps'
    outdir        = './'
    forc_conv_thr = 1.0d-7
    etot_conv_thr = 1.0d-7

/
&SYSTEM
    ibrav       = 0
    nat         = 32
    ntyp        = 2
    ecutwfc     = 120
    occupations = 'smearing'
    degauss     = 7.35d-4
    tot_charge  = -0.0
/
&ELECTRONS
    conv_thr    = 1.0d-8
    diagonalization = 'david'
/


&IONS
ion_dynamics = 'bfgs'
/

&CELL
cell_dynamics = 'bfgs'
cell_dofree = 'all'
/
CELL_PARAMETERS angstrom
        7.3236460686         0.0000000000         0.0000000000
        0.0000000000         7.7495899200         0.0000000000
        0.0000000000         0.0000000000         7.3236460686

ATOMIC_SPECIES
W 183.84 W_ONCV_LDA-4.0.upf
O 15.9994 O_ONCV_LDA-3.0.upf

ATOMIC_POSITIONS crystal
W 0.2832700309999999	0.29442518968000003	0.250949975	 0 0 0
W -0.25094998300000004	0.70557481032	-0.7167300330000002	 0 0 0
W 0.21672998499999996	0.20557480867	0.7509499669999999	 0 0 0
W 0.7509499749999999	0.79442515868	0.7832700149999999	 0 0 0
W 0.7167300249999999	0.29442518968000003	0.749050017	 0 0 0
W 0.25094998299999993	0.70557481032	0.716729969	 0 0 0
W -0.21673003300000004	0.20557480867	-0.7509499830000002	 0 0 0
W 0.24905003299999995	0.79442515868	0.216730025	 0 0 0
O 0.286600001	0.03209620111	0.27654002499999997	 0 0 0
O -0.2765400659999999	0.9679038518599999	-0.7134000160000001	 0 0 0
O 0.21339998300000002	0.4679037864500001	0.7765400330000001	 0 0 0
O 0.776540025	0.5320962169600001	0.786600017	 0 0 0
O 0.7133999750000001	0.03209620111	0.7234599829999999	 0 0 0
O 0.276540017	0.9679038518599999	0.713399999	 0 0 0
O -0.21340001600000003	0.4679037864500001	-0.776540066	 0 0 0
O 0.22345996699999998	0.5320962169600001	0.21339997500000008	 0 0 0
O 0.48823004699999994	0.289450007	0.7644861484	 0 0 0
O 0.49759001299999994	0.7246899969999999	0.73551389075	 0 0 0
O -0.988230047	0.21055000900000004	1.26448612812	 0 0 0
O 0.002410052000000001	0.775309975	0.23551391644	 0 0 0
O 0.5117699529999999	0.289450007	0.23551391644	 0 0 0
O 0.502409987	0.7246899969999999	1.26448612812	 0 0 0
O -0.011769888000000001	0.21055000900000004	0.73551389075	 0 0 0
O -1.002409987	0.775309975	0.7644861484	 0 0 0
O 0.7644862180299998	0.22469002700000001	2.002409987	 0 0 0
O 0.23551390488	0.7105499799999999	0.488230047	 0 0 0
O 0.7355138541199999	0.27530998900000003	0.5024099870000001	 0 0 0
O 0.2644861655099999	0.789449992	1.988230047	 0 0 0
O 0.23551390488	0.22469002700000001	0.997589948	 0 0 0
O 0.76448621803	0.7105499799999999	0.511769953	 0 0 0
O 0.26448616551	0.27530998900000003	0.49759001300000005	 0 0 0
O 0.7355138541199999	0.789449992	1.011769888	 0 0 0

K_POINTS automatic
6 6 6 0 0 0
