
&CONTROL
    calculation   = 'vc-relax'
    restart_mode  = 'from_scratch'
    prefix        = 'Landau_37'
    pseudo_dir    = '/cluster/scratch/mnoe/QE/pps'
    outdir        = './'
    forc_conv_thr = 1.0d-7
    etot_conv_thr = 1.0d-7

/
&SYSTEM
    ibrav       = 0
    nat         = 32
    ntyp        = 2
    ecutwfc     = 120
    occupations = 'smearing'
    degauss     = 7.35d-4
    tot_charge  = -0.0
/
&ELECTRONS
    conv_thr    = 1.0d-8
    diagonalization = 'david'
/


&IONS
ion_dynamics = 'bfgs'
/

&CELL
cell_dynamics = 'bfgs'
cell_dofree = 'all'
/
CELL_PARAMETERS angstrom
        7.3236460686         0.0000000000         0.0000000000
        0.0000000000         7.7495899200         0.0000000000
        0.0000000000         0.0000000000         7.3236460686

ATOMIC_SPECIES
W 183.84 W_ONCV_LDA-4.0.upf
O 15.9994 O_ONCV_LDA-3.0.upf

ATOMIC_POSITIONS crystal
W 0.266040004	0.26133121636160483	-0.983119983	 0 0 0
W 0.7331198737696232	0.7386687836383952	-0.983960061	 0 0 0
W 0.233959996	0.23866880546529334	-0.483119999	 0 0 0
W 0.7668799407696232	0.7613314279954602	-0.483959996	 0 0 0
W 0.7339599517696231	0.26133121636160483	-0.516880001	 0 0 0
W 0.266880001	0.7386687836383952	-0.5160400039999999	 0 0 0
W 0.7660398617696231	0.23866880546529334	-1.0168800500000001	 0 0 0
W 0.233119999	0.7613314279954602	-1.016039971	 0 0 0
O 0.284189987	0.0027318823948361774	-0.965980001	 0 0 0
O 0.7159798917696232	0.9972679872402941	-0.96580998	 0 0 0
O 0.215809996	0.4972681988741494	-0.46598000100000003	 0 0 0
O 0.7840199217696231	0.5027320127597059	-0.465809996	 0 0 0
O 0.7158098707696231	0.0027318823948361774	-0.5340199990000001	 0 0 0
O 0.284019999	0.9972679872402941	-0.534189987	 0 0 0
O 0.7841898777696231	0.4972681988741494	-1.0340200309999998	 0 0 0
O 0.215980001	0.5027320127597059	-1.034189987	 0 0 0
O 0.492869981	0.290840007	-0.5003440981958578	 0 0 0
O 0.504670018	0.7211000524034785	-0.4996556605164901	 0 0 0
O 0.007130027	0.209159993	-1.0003440981958578	 0 0 0
O 0.995329982	0.7789001524034784	-0.9996560609573019	 0 0 0
O 0.507130019	0.290840007	-0.9996560609573019	 0 0 0
O 0.495330015	0.7211000524034785	-1.0003440981958578	 0 0 0
O 0.992869981	0.209159993	-0.4996556605164901	 0 0 0
O 0.004669994	0.7789001524034784	-0.5003440981958578	 0 0 0
O 0.7496557537468669	0.221099996	-0.25467010323037687	 0 0 0
O 0.25034398896548055	0.7091600954034785	-0.757130019	 0 0 0
O 0.7503444327138868	0.278899988	-0.754670018	 0 0 0
O 0.2496558858041422	0.7908401094034785	-0.25713013623037684	 0 0 0
O 0.25034398896548055	0.221099996	-1.2453300912303769	 0 0 0
O 0.7496557537468669	0.7091600954034785	-0.742869981	 0 0 0
O 0.2496558858041422	0.278899988	-0.745330015	 0 0 0
O 0.7503444327138868	0.7908401094034785	-1.242870090230377	 0 0 0

K_POINTS automatic
6 6 6 0 0 0
