# Phonon frequency and phonon lifetime in meV 
# Q-point  Mode   Phonon freq (meV)   Phonon linewidth (meV)
        1     1     -0.37628938E-03      0.0000000000E+00
        1     2     -0.37628778E-03      0.0000000000E+00
        1     3     -0.17142837E-03      0.0000000000E+00
        1     4      0.30437281E+01      0.8562495877E-03
        1     5      0.15278261E+02      0.5479676403E-02
        1     6      0.26519985E+02      0.9814554699E-03
        1     7      0.26519985E+02      0.9814554699E-03
        1     8      0.30878591E+02      0.5400764266E-02
        1     9      0.30878591E+02      0.5400764266E-02
        1    10      0.31485540E+02      0.8850839930E-01
        1    11      0.36816504E+02      0.2084944300E-01
        1    12      0.36816504E+02      0.2084944300E-01
        1    13      0.39212259E+02      0.1059243188E-02
        1    14      0.39782851E+02      0.1405223743E-01
        1    15      0.39782851E+02      0.1405223743E-01
        1    16      0.46746536E+02      0.8147549096E-02
        1    17      0.46746536E+02      0.8147549096E-02
        1    18      0.57320576E+02      0.2404942573E-01
        1    19      0.80321160E+02      0.3211731366E-02
        1    20      0.80321160E+02      0.3211731366E-02
        1    21      0.88245478E+02      0.2203979907E-02
        1    22      0.91681657E+02      0.1516980316E+00
        1    23      0.93003712E+02      0.1240541471E-01
        1    24      0.12690079E+03      0.5978478859E-03
        2     1      0.16621155E+00      0.0000000000E+00
        2     2      0.16621155E+00      0.0000000000E+00
        2     3      0.34001603E+00      0.0000000000E+00
        2     4      0.30436816E+01      0.1171689996E-02
        2     5      0.15285681E+02      0.1883060211E-01
        2     6      0.26521633E+02      0.1083263755E-02
        2     7      0.26521633E+02      0.1083263755E-02
        2     8      0.30873512E+02      0.8814829914E-02
        2     9      0.30873512E+02      0.8814829914E-02
        2    10      0.31485793E+02      0.9307281216E-01
        2    11      0.36816645E+02      0.2138984460E-01
        2    12      0.36816645E+02      0.2138984460E-01
        2    13      0.39220239E+02      0.6565905739E-02
        2    14      0.39782229E+02      0.1404458701E-01
        2    15      0.39782229E+02      0.1404458701E-01
        2    16      0.46749476E+02      0.9358365308E-02
        2    17      0.46749476E+02      0.9358365308E-02
        2    18      0.57320489E+02      0.2696008626E-01
        2    19      0.80320638E+02      0.3108017244E-02
        2    20      0.80320638E+02      0.3108017244E-02
        2    21      0.88244518E+02      0.2359539875E-02
        2    22      0.91669355E+02      0.1589185902E+00
        2    23      0.93037510E+02      0.1461242246E-01
        2    24      0.12690184E+03      0.6122152336E-03
        3     1      0.33226969E+00      0.0000000000E+00
        3     2      0.33226969E+00      0.0000000000E+00
        3     3      0.68060122E+00      0.6644081991E-02
        3     4      0.30435418E+01      0.6321599633E-03
        3     5      0.15307883E+02      0.5925342603E-01
        3     6      0.26526569E+02      0.1442892052E-02
        3     7      0.26526569E+02      0.1442892052E-02
        3     8      0.30858293E+02      0.1266853509E-01
        3     9      0.30858293E+02      0.1266853509E-01
        3    10      0.31486552E+02      0.1059442666E+00
        3    11      0.36817064E+02      0.1904851062E-01
        3    12      0.36817064E+02      0.1904851062E-01
        3    13      0.39244125E+02      0.8211906646E-01
        3    14      0.39780372E+02      0.1217031055E-01
        3    15      0.39780372E+02      0.1217031055E-01
        3    16      0.46758279E+02      0.1205959837E-01
        3    17      0.46758279E+02      0.1205959837E-01
        3    18      0.57320229E+02      0.2726332183E-01
        3    19      0.80319071E+02      0.2748659731E-02
        3    20      0.80319071E+02      0.2748659731E-02
        3    21      0.88241640E+02      0.2158350604E-02
        3    22      0.91636551E+02      0.1271066760E+00
        3    23      0.93134737E+02      0.1990175026E-01
        3    24      0.12690497E+03      0.6262396775E-03
        4     1      0.49802002E+00      0.0000000000E+00
        4     2      0.49802002E+00      0.0000000000E+00
        4     3      0.10223052E+01      0.1132091082E-01
        4     4      0.30433081E+01      0.6817728754E-03
        4     5      0.15344691E+02      0.7736636610E-01
        4     6      0.26534767E+02      0.2169112580E-02
        4     7      0.26534767E+02      0.2169112580E-02
        4     8      0.30832995E+02      0.1345375236E-01
        4     9      0.30832995E+02      0.1345375236E-01
        4    10      0.31487815E+02      0.1446903483E+00
        4    11      0.36817752E+02      0.1949947535E-01
        4    12      0.36817752E+02      0.1949947535E-01
        4    13      0.39283753E+02      0.2144059134E+00
        4    14      0.39777303E+02      0.1187024126E-01
        4    15      0.39777303E+02      0.1187024126E-01
        4    16      0.46772902E+02      0.1436991536E-01
        4    17      0.46772902E+02      0.1436991536E-01
        4    18      0.57319795E+02      0.2687059525E-01
        4    19      0.80316462E+02      0.2053240312E-02
        4    20      0.80316462E+02      0.2053240312E-02
        4    21      0.88236845E+02      0.1823487265E-02
        4    22      0.91592475E+02      0.9166788246E-01
        4    23      0.93285973E+02      0.1006582087E+00
        4    24      0.12691019E+03      0.6502428910E-03
        5     1      0.66330980E+00      0.7748637245E-04
        5     2      0.66330980E+00      0.7748637245E-04
        5     3      0.13656398E+01      0.2270383240E-01
        5     4      0.30429794E+01      0.8778516533E-03
        5     5      0.15395820E+02      0.1118524924E+00
        5     6      0.26546182E+02      0.2368643501E-02
        5     7      0.26546182E+02      0.2368643501E-02
        5     8      0.30797714E+02      0.1240038223E-01
        5     9      0.30797714E+02      0.1240038223E-01
        5    10      0.31489579E+02      0.1446477930E+00
        5    11      0.36818694E+02      0.2102692774E-01
        5    12      0.36818694E+02      0.2102692774E-01
        5    13      0.39338852E+02      0.2853270210E+00
        5    14      0.39773060E+02      0.1251822124E-01
        5    15      0.39773060E+02      0.1251822124E-01
        5    16      0.46793270E+02      0.1402867055E-01
        5    17      0.46793270E+02      0.1402867055E-01
        5    18      0.57319188E+02      0.2620951938E-01
        5    19      0.80312814E+02      0.1906792669E-02
        5    20      0.80312814E+02      0.1906792669E-02
        5    21      0.88230137E+02      0.1727127350E-02
        5    22      0.91546384E+02      0.1258687624E+00
        5    23      0.93481642E+02      0.5823359849E+00
        5    24      0.12691750E+03      0.7408989253E-03
        6     1      0.82798744E+00      0.1399479999E-03
        6     2      0.82798744E+00      0.1399479999E-03
        6     3      0.17110630E+01      0.3526316807E-01
        6     4      0.30425543E+01      0.1032775602E-02
        6     5      0.15460882E+02      0.1356641798E+00
        6     6      0.26560750E+02      0.2308034709E-02
        6     7      0.26560750E+02      0.2308034709E-02
        6     8      0.30752590E+02      0.1103704182E-01
        6     9      0.30752590E+02      0.1103704182E-01
        6    10      0.31491841E+02      0.1399643764E+00
        6    11      0.36819870E+02      0.1926216083E-01
        6    12      0.36819870E+02      0.1926216083E-01
        6    13      0.39409049E+02      0.3343753471E+00
        6    14      0.39767694E+02      0.1170817105E-01
        6    15      0.39767694E+02      0.1170817105E-01
        6    16      0.46819284E+02      0.1342487382E-01
        6    17      0.46819284E+02      0.1342487382E-01
        6    18      0.57318409E+02      0.2650853840E-01
        6    19      0.80308130E+02      0.2047773380E-02
        6    20      0.80308130E+02      0.2047773380E-02
        6    21      0.88221518E+02      0.1905895145E-02
        6    22      0.91505153E+02      0.2638437828E+00
        6    23      0.93714426E+02      0.1204019010E+01
        6    24      0.12692691E+03      0.1206212195E-02
        7     1      0.99190292E+00      0.1882083782E-03
        7     2      0.99190292E+00      0.1882083782E-03
        7     3      0.20589649E+01      0.3877591304E-01
        7     4      0.30420310E+01      0.1208171010E-02
        7     5      0.15539403E+02      0.1471197100E+00
        7     6      0.26578383E+02      0.2184200925E-02
        7     7      0.26578383E+02      0.2184200925E-02
        7     8      0.30697802E+02      0.1003739476E-01
        7     9      0.30697802E+02      0.1003739476E-01
        7    10      0.31494597E+02      0.1370123362E+00
        7    11      0.36821256E+02      0.1925123431E-01
        7    12      0.36821256E+02      0.1925123431E-01
        7    13      0.39493873E+02      0.3777578230E+00
        7    14      0.39761270E+02      0.1185837120E-01
        7    15      0.39761270E+02      0.1185837120E-01
        7    16      0.46850817E+02      0.1224447753E-01
        7    17      0.46850817E+02      0.1224447753E-01
        7    18      0.57317457E+02      0.2642388883E-01
        7    19      0.80302417E+02      0.2168879595E-02
        7    20      0.80302417E+02      0.2168879595E-02
        7    21      0.88210996E+02      0.2055830603E-02
        7    22      0.91473216E+02      0.3990734140E+00
        7    23      0.93979323E+02      0.1511631594E+01
        7    24      0.12693842E+03      0.1876365787E-02
        8     1      0.11549082E+01      0.2429968456E-03
        8     2      0.11549082E+01      0.2429968456E-03
        8     3      0.24096574E+01      0.3772896904E-01
        8     4      0.30414072E+01      0.2297664650E-02
        8     5      0.15630836E+02      0.1538248662E+00
        8     6      0.26598967E+02      0.2449284561E-02
        8     7      0.26598967E+02      0.2449284561E-02
        8     8      0.30633575E+02      0.9781128207E-02
        8     9      0.30633575E+02      0.9781128207E-02
        8    10      0.31497841E+02      0.1555205798E+00
        8    11      0.36822821E+02      0.1749436995E-01
        8    12      0.36822821E+02      0.1749436995E-01
        8    13      0.39592763E+02      0.3998881386E+00
        8    14      0.39753864E+02      0.1073720609E-01
        8    15      0.39753864E+02      0.1073720609E-01
        8    16      0.46887719E+02      0.1081388815E-01
        8    17      0.46887719E+02      0.1081388815E-01
        8    18      0.57316333E+02      0.2358631098E-01
        8    19      0.80295679E+02      0.2235277438E-02
        8    20      0.80295679E+02      0.2235277438E-02
        8    21      0.88198576E+02      0.2207936592E-02
        8    22      0.91453237E+02      0.4841710759E+00
        8    23      0.94272982E+02      0.1684030387E+01
        8    24      0.12695204E+03      0.2096910800E-02
        9     1      0.13168578E+01      0.4122563843E-03
        9     2      0.13168578E+01      0.4122563843E-03
        9     3      0.27633677E+01      0.4330419600E-01
        9     4      0.30406804E+01      0.3078178721E-02
        9     5      0.15734574E+02      0.1560169134E+00
        9     6      0.26622358E+02      0.2446940596E-02
        9     7      0.26622358E+02      0.2446940596E-02
        9     8      0.30560180E+02      0.1038399301E-01
        9     9      0.30560180E+02      0.1038399301E-01
        9    10      0.31501565E+02      0.1695232504E+00
        9    11      0.36824534E+02      0.2037902431E-01
        9    12      0.36824534E+02      0.2037902431E-01
        9    13      0.39705075E+02      0.4576290712E+00
        9    14      0.39745559E+02      0.1236294066E-01
        9    15      0.39745559E+02      0.1236294066E-01
        9    16      0.46929820E+02      0.1093281919E-01
        9    17      0.46929820E+02      0.1093281919E-01
        9    18      0.57315039E+02      0.2243450399E-01
        9    19      0.80287926E+02      0.2299449451E-02
        9    20      0.80287926E+02      0.2299449451E-02
        9    21      0.88184266E+02      0.2246249391E-02
        9    22      0.91446716E+02      0.5611902189E+00
        9    23      0.94593097E+02      0.1880574825E+01
        9    24      0.12696777E+03      0.2266962826E-02
       10     1      0.14776086E+01      0.6353588675E-03
       10     2      0.14776086E+01      0.6353588675E-03
       10     3      0.30398474E+01      0.2756633041E-02
       10     4      0.31202342E+01      0.6628212711E-01
       10     5      0.15849972E+02      0.1832539584E+00
       10     6      0.26648371E+02      0.2434576533E-02
       10     7      0.26648371E+02      0.2434576533E-02
       10     8      0.30477941E+02      0.9855575151E-02
       10     9      0.30477941E+02      0.9855575151E-02
       10    10      0.31505763E+02      0.1600450484E+00
       10    11      0.36826360E+02      0.2160491012E-01
       10    12      0.36826360E+02      0.2160491012E-01
       10    13      0.39736448E+02      0.1332744778E-01
       10    14      0.39736448E+02      0.1332744778E-01
       10    15      0.39830092E+02      0.5622865333E+00
       10    16      0.46976930E+02      0.1113848255E-01
       10    17      0.46976930E+02      0.1113848255E-01
       10    18      0.57313574E+02      0.2418646967E-01
       10    19      0.80279164E+02      0.2514640254E-02
       10    20      0.80279164E+02      0.2514640254E-02
       10    21      0.88168075E+02      0.2334690713E-02
       10    22      0.91454412E+02      0.6183476038E+00
       10    23      0.94937991E+02      0.2072071138E+01
       10    24      0.12698561E+03      0.2314840386E-02
       11     1      0.16370211E+01      0.7635832114E-03
       11     2      0.16370211E+01      0.7635832114E-03
       11     3      0.30389050E+01      0.2176315396E-02
       11     4      0.34803065E+01      0.8572873322E-01
       11     5      0.15976357E+02      0.1976565172E+00
       11     6      0.26676778E+02      0.2417352653E-02
       11     7      0.26676778E+02      0.2417352653E-02
       11     8      0.30387240E+02      0.8992679689E-02
       11     9      0.30387240E+02      0.8992679689E-02
       11    10      0.31510427E+02      0.1520099756E+00
       11    11      0.36828262E+02      0.1829185867E-01
       11    12      0.36828262E+02      0.1829185867E-01
       11    13      0.39726630E+02      0.1123313365E-01
       11    14      0.39726630E+02      0.1123313365E-01
       11    15      0.39967029E+02      0.6254325894E+00
       11    16      0.47028846E+02      0.1056721014E-01
       11    17      0.47028846E+02      0.1056721014E-01
       11    18      0.57311940E+02      0.2611141584E-01
       11    19      0.80269406E+02      0.2598906601E-02
       11    20      0.80269406E+02      0.2598906601E-02
       11    21      0.88150013E+02      0.2578341851E-02
       11    22      0.91476606E+02      0.6663411190E+00
       11    23      0.95306352E+02      0.2286675139E+01
       11    24      0.12700559E+03      0.2247264664E-02
       12     1      0.17949589E+01      0.9293227905E-03
       12     2      0.17949589E+01      0.9293227905E-03
       12     3      0.30378496E+01      0.1303147516E-02
       12     4      0.38435476E+01      0.8819256359E-01
       12     5      0.16113048E+02      0.1933044846E+00
       12     6      0.26707287E+02      0.2593907960E-02
       12     7      0.26707287E+02      0.2593907960E-02
       12     8      0.30288528E+02      0.8456196878E-02
       12     9      0.30288528E+02      0.8456196878E-02
       12    10      0.31515546E+02      0.1567503387E+00
       12    11      0.36830201E+02      0.1599461436E-01
       12    12      0.36830201E+02      0.1599461436E-01
       12    13      0.39716207E+02      0.9729816582E-02
       12    14      0.39716207E+02      0.9729816582E-02
       12    15      0.40115050E+02      0.7081409453E+00
       12    16      0.47085351E+02      0.9506137775E-02
       12    17      0.47085351E+02      0.9506137775E-02
       12    18      0.57310139E+02      0.2565379374E-01
       12    19      0.80258660E+02      0.2446937502E-02
       12    20      0.80258660E+02      0.2446937502E-02
       12    21      0.88130092E+02      0.2676943836E-02
       12    22      0.91513260E+02      0.6857970986E+00
       12    23      0.95697082E+02      0.2410502586E+01
       12    24      0.12702769E+03      0.2462442127E-02
       13     1      0.19512897E+01      0.1138121683E-02
       13     2      0.19512897E+01      0.1138121683E-02
       13     3      0.30366771E+01      0.3288447111E-03
       13     4      0.42098384E+01      0.7385209290E-01
       13     5      0.16259366E+02      0.1813782109E+00
       13     6      0.26739533E+02      0.2811467670E-02
       13     7      0.26739533E+02      0.2811467670E-02
       13     8      0.30182341E+02      0.8332673419E-02
       13     9      0.30182341E+02      0.8332673419E-02
       13    10      0.31521111E+02      0.1468682393E+00
       13    11      0.36832140E+02      0.1760610842E-01
       13    12      0.36832140E+02      0.1760610842E-01
       13    13      0.39705282E+02      0.1053968580E-01
       13    14      0.39705282E+02      0.1053968580E-01
       13    15      0.40273270E+02      0.7733412855E+00
       13    16      0.47146218E+02      0.8855026314E-02
       13    17      0.47146218E+02      0.8855026314E-02
       13    18      0.57308170E+02      0.2232082584E-01
       13    19      0.80246939E+02      0.2406846090E-02
       13    20      0.80246939E+02      0.2406846090E-02
       13    21      0.88108325E+02      0.2781120254E-02
       13    22      0.91564128E+02      0.7312431392E+00
       13    23      0.96109194E+02      0.2701316500E+01
       13    24      0.12705193E+03      0.2769547954E-02
       14     1      0.21058853E+01      0.1327694474E-02
       14     2      0.21058853E+01      0.1327694474E-02
       14     3      0.30353833E+01      0.3980158491E-03
       14     4      0.45789841E+01      0.8926987724E-01
       14     5      0.16414647E+02      0.1932103532E+00
       14     6      0.26773051E+02      0.3211607430E-02
       14     7      0.26773051E+02      0.3211607430E-02
       14     8      0.30069320E+02      0.8620021919E-02
       14     9      0.30069320E+02      0.8620021919E-02
       14    10      0.31527110E+02      0.1664997361E+00
       14    11      0.36834042E+02      0.1719519779E-01
       14    12      0.36834042E+02      0.1719519779E-01
       14    13      0.39693962E+02      0.1023712928E-01
       14    14      0.39693962E+02      0.1023712928E-01
       14    15      0.40440774E+02      0.9624568309E+00
       14    16      0.47211215E+02      0.8563679364E-02
       14    17      0.47211215E+02      0.8563679364E-02
       14    18      0.57306035E+02      0.2184665155E-01
       14    19      0.80234257E+02      0.2541276151E-02
       14    20      0.80234257E+02      0.2541276151E-02
       14    21      0.88084726E+02      0.2999240676E-02
       14    22      0.91628809E+02      0.7696965561E+00
       14    23      0.96541757E+02      0.3055745852E+01
       14    24      0.12707832E+03      0.3351247848E-02
       15     1      0.22586220E+01      0.1801944171E-02
       15     2      0.22586220E+01      0.1801944171E-02
       15     3      0.30339637E+01      0.4926468648E-03
       15     4      0.49507208E+01      0.1095299334E+00
       15     5      0.16578254E+02      0.2104503166E+00
       15     6      0.26807249E+02      0.3541647108E-02
       15     7      0.26807249E+02      0.3541647108E-02
       15     8      0.29950237E+02      0.7350365088E-02
       15     9      0.29950237E+02      0.7350365088E-02
       15    10      0.31533532E+02      0.1590094052E+00
       15    11      0.36835868E+02      0.1564311125E-01
       15    12      0.36835868E+02      0.1564311125E-01
       15    13      0.39682351E+02      0.9201252557E-02
       15    14      0.39682351E+02      0.9201252557E-02
       15    15      0.40616616E+02      0.9828399928E+00
       15    16      0.47280104E+02      0.7638365560E-02
       15    17      0.47280104E+02      0.7638365560E-02
       15    18      0.57303737E+02      0.2157334170E-01
       15    19      0.80220627E+02      0.2696722817E-02
       15    20      0.80220627E+02      0.2696722817E-02
       15    21      0.88059309E+02      0.3257822578E-02
       15    22      0.91706799E+02      0.7801896248E+00
       15    23      0.96993857E+02      0.3310250174E+01
       15    24      0.12710685E+03      0.4471311255E-02
       16     1      0.24093809E+01      0.2022779593E-02
       16     2      0.24093809E+01      0.2022779593E-02
       16     3      0.30324134E+01     -0.1027581703E-03
       16     4      0.53247245E+01      0.1045342263E+00
       16     5      0.16749578E+02      0.2008227814E+00
       16     6      0.26841362E+02      0.3985944400E-02
       16     7      0.26841362E+02      0.3985944400E-02
       16     8      0.29826038E+02      0.7138562525E-02
       16     9      0.29826038E+02      0.7138562525E-02
       16    10      0.31540363E+02      0.1622436911E+00
       16    11      0.36837583E+02      0.1538632575E-01
       16    12      0.36837583E+02      0.1538632575E-01
       16    13      0.39670552E+02      0.9071162205E-02
       16    14      0.39670552E+02      0.9071162205E-02
       16    15      0.40799841E+02      0.1169073165E+01
       16    16      0.47352644E+02      0.7223028794E-02
       16    17      0.47352644E+02      0.7223028794E-02
       16    18      0.57301275E+02      0.2162323183E-01
       16    19      0.80206063E+02      0.2894362402E-02
       16    20      0.80206063E+02      0.2894362402E-02
       16    21      0.88032093E+02      0.3716714597E-02
       16    22      0.91797517E+02      0.8790672445E+00
       16    23      0.97464576E+02      0.3801924289E+01
       16    24      0.12713754E+03      0.5702767817E-02
       17     1      0.25580482E+01      0.2198824073E-02
       17     2      0.25580482E+01      0.2198824073E-02
       17     3      0.30307275E+01     -0.1950634681E-03
       17     4      0.57006183E+01      0.9748871473E-01
       17     5      0.16928052E+02      0.1901228267E+00
       17     6      0.26874397E+02      0.4333973812E-02
       17     7      0.26874397E+02      0.4333973812E-02
       17     8      0.29697897E+02      0.6009212199E-02
       17     9      0.29697897E+02      0.6009212199E-02
       17    10      0.31547591E+02      0.1522734865E+00
       17    11      0.36839153E+02      0.1290250236E-01
       17    12      0.36839153E+02      0.1290250236E-01
       17    13      0.39658667E+02      0.7893755858E-02
       17    14      0.39658667E+02      0.7893755858E-02
       17    15      0.40989482E+02      0.1406897709E+01
       17    16      0.47428595E+02      0.6953435109E-02
       17    17      0.47428595E+02      0.6953435109E-02
       17    18      0.57298653E+02      0.2255630742E-01
       17    19      0.80190584E+02      0.3163399050E-02
       17    20      0.80190584E+02      0.3163399050E-02
       17    21      0.88003093E+02      0.4306143601E-02
       17    22      0.91900323E+02      0.9855158137E+00
       17    23      0.97952976E+02      0.4454898233E+01
       17    24      0.12717039E+03      0.6901747615E-02
       18     1      0.27045155E+01      0.2416660465E-02
       18     2      0.27045155E+01      0.2416660465E-02
       18     3      0.30289007E+01     -0.4877848243E-03
       18     4      0.60779813E+01      0.9700998360E-01
       18     5      0.17113151E+02      0.1995752282E+00
       18     6      0.26905062E+02      0.4464232376E-02
       18     7      0.26905062E+02      0.4464232376E-02
       18     8      0.29567288E+02      0.5684034658E-02
       18     9      0.29567288E+02      0.5684034658E-02
       18    10      0.31555200E+02      0.1580954263E+00
       18    11      0.36840545E+02      0.1166846730E-01
       18    12      0.36840545E+02      0.1166846730E-01
       18    13      0.39646793E+02      0.7407156985E-02
       18    14      0.39646793E+02      0.7407156985E-02
       18    15      0.41184578E+02      0.1404344245E+01
       18    16      0.47507720E+02      0.6324007306E-02
       18    17      0.47507720E+02      0.6324007306E-02
       18    18      0.57295871E+02      0.2300797129E-01
       18    19      0.80174204E+02      0.3194148051E-02
       18    20      0.80174204E+02      0.3194148051E-02
       18    21      0.87972331E+02      0.4725068917E-02
       18    22      0.92014539E+02      0.1036610232E+01
       18    23      0.98458090E+02      0.4832581191E+01
       18    24      0.12720539E+03      0.8503390178E-02
       19     1      0.28486800E+01      0.2761380909E-02
       19     2      0.28486800E+01      0.2761380909E-02
       19     3      0.30269278E+01     -0.2945979614E-03
       19     4      0.64563564E+01      0.9619285221E-01
       19     5      0.17304391E+02      0.2010501965E+00
       19     6      0.26931665E+02      0.5065179157E-02
       19     7      0.26931665E+02      0.5065179157E-02
       19     8      0.29436080E+02      0.5281901281E-02
       19     9      0.29436080E+02      0.5281901281E-02
       19    10      0.31563177E+02      0.1899630248E+00
       19    11      0.36841730E+02      0.1660065549E-01
       19    12      0.36841730E+02      0.1660065549E-01
       19    13      0.39635022E+02      0.1099803026E-01
       19    14      0.39635022E+02      0.1099803026E-01
       19    15      0.41384176E+02      0.1280825265E+01
       19    16      0.47589782E+02      0.5604808909E-02
       19    17      0.47589782E+02      0.5604808909E-02
       19    18      0.57292932E+02      0.1980567921E-01
       19    19      0.80156943E+02      0.3173275876E-02
       19    20      0.80156943E+02      0.3173275876E-02
       19    21      0.87939825E+02      0.5143372037E-02
       19    22      0.92139456E+02      0.1092790690E+01
       19    23      0.98978925E+02      0.5216781154E+01
       19    24      0.12724256E+03      0.9705474767E-02
       20     1      0.29904447E+01      0.3516795239E-02
       20     2      0.29904447E+01      0.3516795239E-02
       20     3      0.30248032E+01      0.2686755214E-03
       20     4      0.68352578E+01      0.1198689667E+00
       20     5      0.17501336E+02      0.2155107166E+00
       20     6      0.26952005E+02      0.5282127886E-02
       20     7      0.26952005E+02      0.5282127886E-02
       20     8      0.29306649E+02      0.4478940404E-02
       20     9      0.29306649E+02      0.4478940404E-02
       20    10      0.31571506E+02      0.1729391911E+00
       20    11      0.36842680E+02      0.1866521327E-01
       20    12      0.36842680E+02      0.1866521327E-01
       20    13      0.39623445E+02      0.1243381453E-01
       20    14      0.39623445E+02      0.1243381453E-01
       20    15      0.41587340E+02      0.1290443965E+01
       20    16      0.47674552E+02      0.4499627157E-02
       20    17      0.47674552E+02      0.4499627157E-02
       20    18      0.57289838E+02      0.1539529867E-01
       20    19      0.80138818E+02      0.3046477479E-02
       20    20      0.80138818E+02      0.3046477479E-02
       20    21      0.87905599E+02      0.4914977844E-02
       20    22      0.92274342E+02      0.1079309027E+01
       20    23      0.99514449E+02      0.5596529930E+01
       20    24      0.12728187E+03      0.1067187360E-01
       21     1      0.30225214E+01     -0.2582722550E-03
       21     2      0.31297187E+01      0.3643029059E-02
       21     3      0.31297187E+01      0.3643029059E-02
       21     4      0.72141784E+01      0.1109961530E+00
       21     5      0.17703597E+02      0.2062271872E+00
       21     6      0.26963266E+02      0.5189385523E-02
       21     7      0.26963266E+02      0.5189385523E-02
       21     8      0.29181977E+02      0.4410496547E-02
       21     9      0.29181977E+02      0.4410496547E-02
       21    10      0.31580170E+02      0.1662922437E+00
       21    11      0.36843369E+02      0.1246215092E-01
       21    12      0.36843369E+02      0.1246215092E-01
       21    13      0.39612147E+02      0.8673642126E-02
       21    14      0.39612147E+02      0.8673642126E-02
       21    15      0.41793159E+02      0.1363570397E+01
       21    16      0.47761804E+02      0.4177048608E-02
       21    17      0.47761804E+02      0.4177048608E-02
       21    18      0.57286590E+02      0.1330692189E-01
       21    19      0.80119851E+02      0.3032712605E-02
       21    20      0.80119851E+02      0.3032712605E-02
       21    21      0.87869676E+02      0.4848697945E-02
       21    22      0.92418455E+02      0.9526940940E+00
       21    23      0.10006360E+03      0.5506230330E+01
       21    24      0.12732334E+03      0.1189404556E-01
       22     1      0.30200766E+01     -0.3454313503E-04
       22     2      0.32664173E+01      0.3897940238E-02
       22     3      0.32664173E+01      0.3897940238E-02
       22     4      0.75925964E+01      0.1242190565E+00
       22     5      0.17910823E+02      0.2132316408E+00
       22     6      0.26961967E+02      0.5286310016E-02
       22     7      0.26961967E+02      0.5286310016E-02
       22     8      0.29065709E+02      0.4442483366E-02
       22     9      0.29065709E+02      0.4442483366E-02
       22    10      0.31589153E+02      0.1548107522E+00
       22    11      0.36843773E+02      0.1247905733E-01