
&CONTROL
    calculation   = 'vc-relax'
    restart_mode  = 'from_scratch'
    prefix        = 'Landau_34'
    pseudo_dir    = '/cluster/scratch/mnoe/QE/pps'
    outdir        = './'
    forc_conv_thr = 1.0d-7
    etot_conv_thr = 1.0d-7

/
&SYSTEM
    ibrav       = 0
    nat         = 32
    ntyp        = 2
    ecutwfc     = 120
    occupations = 'smearing'
    degauss     = 7.35d-4
    tot_charge  = -0.0
/
&ELECTRONS
    conv_thr    = 1.0d-8
    diagonalization = 'david'
/


&IONS
ion_dynamics = 'bfgs'
/

&CELL
cell_dynamics = 'bfgs'
cell_dofree = 'all'
/
CELL_PARAMETERS angstrom
        7.3236460686         0.0000000000         0.0000000000
        0.0000000000         7.3236460686         0.0000000000
        0.0000000000         0.0000000000         7.7495899200

ATOMIC_SPECIES
W 183.84 W_ONCV_LDA-4.0.upf
O 15.9994 O_ONCV_LDA-3.0.upf

ATOMIC_POSITIONS crystal
W 0.235259998         0.234490002         0.218119991 0 0 0
W 0.764739969         0.765509981         0.218119991 0 0 0
W 0.234490002         0.764739969         0.781880024 0 0 0
W 0.765509981         0.235259998         0.781880024 0 0 0
W 0.264739986         0.734490051         0.281880024 0 0 0
W 0.735259998         0.265509998         0.281880024 0 0 0
W 0.265509998         0.264739986         0.718119976 0 0 0
W 0.734490051         0.735259998         0.718119976 0 0 0
O 0.218579989         0.218739998         0.491670026 0 0 0
O 0.781419962         0.781260034         0.491670026 0 0 0
O 0.218739998         0.781419962         0.508329974 0 0 0
O 0.781260034         0.218579989         0.508329974 0 0 0
O 0.281419995         0.718739998         0.008329987 0 0 0
O 0.718580005         0.281260002         0.008329987 0 0 0
O 0.281260002         0.281419995         0.991670026 0 0 0
O 0.718739998         0.718580005         0.991670026 0 0 0
O 0.199410008         0.495709974         0.276560021 0 0 0
O 0.800589976         0.504289993         0.276560021 0 0 0
O 0.495709974         0.800589976         0.723440010 0 0 0
O 0.504289993         0.199410008         0.723440010 0 0 0
O 0.300589976         0.995710007         0.223439994 0 0 0
O 0.699409992         0.004290015         0.223439994 0 0 0
O 0.004290015         0.300589976         0.776559990 0 0 0
O 0.995710007         0.699409992         0.776559990 0 0 0
O 0.993449981         0.199410008         0.212480000 0 0 0
O 0.006550014         0.800589976         0.212480000 0 0 0
O 0.199410008         0.006550014         0.787520016 0 0 0
O 0.800589976         0.993449981         0.787520016 0 0 0
O 0.506550019         0.699409992         0.287519985 0 0 0
O 0.493449915         0.300589976         0.287519985 0 0 0
O 0.300589976         0.506550019         0.712479984 0 0 0
O 0.699409992         0.493449915         0.712479984 0 0 0

K_POINTS automatic
6 6 6 0 0 0
