
&CONTROL
    calculation   = 'vc-relax'
    restart_mode  = 'from_scratch'
    prefix        = 'Landau_10'
    pseudo_dir    = '/cluster/scratch/mnoe/QE/pps'
    outdir        = './'
    forc_conv_thr = 1.0d-7
    etot_conv_thr = 1.0d-7

/
&SYSTEM
    ibrav       = 0
    nat         = 32
    ntyp        = 2
    ecutwfc     = 120
    occupations = 'smearing'
    degauss     = 7.35d-4
    tot_charge  = -0.0
/
&ELECTRONS
    conv_thr    = 1.0d-8
    diagonalization = 'david'
/


&IONS
ion_dynamics = 'bfgs'
/

&CELL
cell_dynamics = 'bfgs'
cell_dofree = 'all'
/
CELL_PARAMETERS angstrom
        7.3236460686         0.0000000000         0.0000000000
        0.0000000000         7.7495899200         0.0000000000
        0.0000000000         0.0000000000         7.3236460686

ATOMIC_SPECIES
W 183.84 W_ONCV_LDA-4.0.upf
O 15.9994 O_ONCV_LDA-3.0.upf

ATOMIC_POSITIONS crystal
W 0.25	0.2804660368589584	0.0	 0 0 0
W 0.7499999925901566	0.7195339631410416	0.0	 0 0 0
W 0.25	0.2195339786041568	0.5	 0 0 0
W 0.7499999925901566	0.78046602021553	0.5	 0 0 0
W 0.7499999925901566	0.2804660368589584	0.5	 0 0 0
W 0.25	0.7195339631410416	0.5	 0 0 0
W 0.7499999925901566	0.2195339786041568	0.0	 0 0 0
W 0.25	0.78046602021553	0.0	 0 0 0
O 0.25	0.00794024228310811	0.0	 0 0 0
O 0.7499999925901566	0.9920597709914725	0.0	 0 0 0
O 0.25	0.49205975434804405	0.5	 0 0 0
O 0.7499999925901566	0.5079402290085275	0.5	 0 0 0
O 0.7499999925901566	0.00794024228310811	0.5	 0 0 0
O 0.25	0.9920597709914725	0.5	 0 0 0
O 0.7499999925901566	0.49205975434804405	0.0	 0 0 0
O 0.25	0.5079402290085275	0.0	 0 0 0
O 0.5	0.25	0.45294852548788517	 0 0 0
O 0.5	0.7499999919467282	0.5470514567949168	 0 0 0
O 0.0	0.25	0.9529485584878852	 0 0 0
O 0.0	0.7499999919467282	0.04705147754488882	 0 0 0
O 0.5	0.25	0.04705147754488882	 0 0 0
O 0.5	0.7499999919467282	0.9529485584878852	 0 0 0
O 0.0	0.25	0.5470514567949168	 0 0 0
O 0.0	0.7499999919467282	0.45294852548788517	 0 0 0
O 0.7029485506149266	0.25	0.7499999925901566	 0 0 0
O 0.29705146710227137	0.7499999919467282	0.25	 0 0 0
O 0.7970514642047603	0.25	0.25	 0 0 0
O 0.20294854148788521	0.7499999919467282	0.7499999925901566	 0 0 0
O 0.29705146710227137	0.25	0.7499999925901566	 0 0 0
O 0.7029485506149266	0.7499999919467282	0.25	 0 0 0
O 0.20294854148788521	0.25	0.25	 0 0 0
O 0.7970514642047603	0.7499999919467282	0.7499999925901566	 0 0 0

K_POINTS automatic
6 6 6 0 0 0
