
&CONTROL
    calculation   = 'vc-relax'
    restart_mode  = 'from_scratch'
    prefix        = 'Landau_21'
    pseudo_dir    = '/cluster/scratch/mnoe/QE/pps'
    outdir        = './'
    forc_conv_thr = 1.0d-7
    etot_conv_thr = 1.0d-7

/
&SYSTEM
    ibrav       = 0
    nat         = 32
    ntyp        = 2
    ecutwfc     = 120
    occupations = 'smearing'
    degauss     = 7.35d-4
    tot_charge  = -0.0
/
&ELECTRONS
    conv_thr    = 1.0d-8
    diagonalization = 'david'
/


&IONS
ion_dynamics = 'bfgs'
/

&CELL
cell_dynamics = 'bfgs'
cell_dofree = 'all'
/
CELL_PARAMETERS angstrom
        7.3236460686         0.0000000000         0.0000000000
        0.0000000000         7.7495899200         0.0000000000
        0.0000000000         0.0000000000         7.3236460686

ATOMIC_SPECIES
W 183.84 W_ONCV_LDA-4.0.upf
O 15.9994 O_ONCV_LDA-3.0.upf

ATOMIC_POSITIONS crystal
W 0.240290009	0.27977221546175024	0.009170001	 0 0 0
W 0.7597099959020412	0.7202277845382498	0.990830031	 0 0 0
W 0.259710007	0.22022780023187216	0.509170002	 0 0 0
W 0.7402899819020412	0.7797722059640454	0.490829998	 0 0 0
W 0.7597099959020412	0.27977221546175024	0.490829998	 0 0 0
W 0.240290009	0.7202277845382498	0.509170002	 0 0 0
W 0.7402899819020412	0.22022780023187216	0.990830031	 0 0 0
W 0.259710007	0.7797722059640454	0.009170001	 0 0 0
O 0.232080001	0.007751224758236507	0.00285	 0 0 0
O 0.7679200209020413	0.9922487836756927	0.997149987	 0 0 0
O 0.267920015	0.49224877417798774	0.50284998	 0 0 0
O 0.7320799569020412	0.5077512163243073	0.49715002	 0 0 0
O 0.7679200209020413	0.007751224758236507	0.49715002	 0 0 0
O 0.232080001	0.9922487836756927	0.50284998	 0 0 0
O 0.7320799569020412	0.49224877417798774	0.997149987	 0 0 0
O 0.267920015	0.5077512163243073	0.00285	 0 0 0
O 0.502650022	0.231620002	0.45464505531849597	 0 0 0
O 0.497349978	0.7683800234043364	0.545354934571044	 0 0 0
O 0.997349946	0.268379982	0.9546450883184959	 0 0 0
O 0.002650022	0.7316200284043364	0.045354941260076206	 0 0 0
O 0.497349978	0.231620002	0.045354941260076206	 0 0 0
O 0.502650022	0.7683800234043364	0.9546450883184959	 0 0 0
O 0.002650022	0.268379982	0.545354934571044	 0 0 0
O 0.997349946	0.7316200284043364	0.45464505531849597	 0 0 0
O 0.7046450765269148	0.245989997	0.7459700179020412	 0 0 0
O 0.29535493358354525	0.7540100604043364	0.254029987	 0 0 0
O 0.7953549456690027	0.254010019	0.245970013	 0 0 0
O 0.20464507131849596	0.7459899914043364	0.7540299599020412	 0 0 0
O 0.29535493358354525	0.245989997	0.7540299599020412	 0 0 0
O 0.7046450765269148	0.7540100604043364	0.245970013	 0 0 0
O 0.20464507131849596	0.254010019	0.254029987	 0 0 0
O 0.7953549456690027	0.7459899914043364	0.7459700179020412	 0 0 0

K_POINTS automatic
6 6 6 0 0 0
