
&CONTROL
    calculation   = 'vc-relax'
    restart_mode  = 'from_scratch'
    prefix        = 'Landau_36'
    pseudo_dir    = '/cluster/scratch/mnoe/QE/pps'
    outdir        = './'
    forc_conv_thr = 1.0d-7
    etot_conv_thr = 1.0d-7

/
&SYSTEM
    ibrav       = 0
    nat         = 32
    ntyp        = 2
    ecutwfc     = 120
    occupations = 'smearing'
    degauss     = 7.35d-4
    tot_charge  = -0.0
/
&ELECTRONS
    conv_thr    = 1.0d-8
    diagonalization = 'david'
/


&IONS
ion_dynamics = 'bfgs'
/

&CELL
cell_dynamics = 'bfgs'
cell_dofree = 'all'
/
CELL_PARAMETERS angstrom
        7.3236460686         0.0000000000         0.0000000000
        0.0000000000         7.7495899200         0.0000000000
        0.0000000000         0.0000000000         7.3236460686

ATOMIC_SPECIES
W 183.84 W_ONCV_LDA-4.0.upf
O 15.9994 O_ONCV_LDA-3.0.upf

ATOMIC_POSITIONS crystal
W 0.265609985	0.26188658954102095	-0.983579972	 0 0 0
W 0.7335798657217956	0.738113410458979	-0.984390031	 0 0 0
W 0.234389998	0.23811343210136648	-0.483579988	 0 0 0
W 0.7664198897217955	0.7618867954550423	-0.484389998	 0 0 0
W 0.7343899247217955	0.26188658954102095	-0.516420012	 0 0 0
W 0.266420012	0.738113410458979	-0.515609985	 0 0 0
W 0.7656098957217955	0.23811343210136648	-1.016419996	 0 0 0
W 0.233579988	0.7618867954550423	-1.0156100019999998	 0 0 0
O 0.28327001	0.0028831825193000636	-0.966899979	 0 0 0
O 0.7168998727217956	0.9971166909905564	-0.966730023	 0 0 0
O 0.216730006	0.49711689690457783	-0.466900011	 0 0 0
O 0.7830998827217955	0.5028833090094436	-0.46673000600000003	 0 0 0
O 0.7167299167217955	0.0028831825193000636	-0.533100021	 0 0 0
O 0.283100021	0.9971166909905564	-0.5332700100000001	 0 0 0
O 0.7832699037217955	0.49711689690457783	-1.033099989	 0 0 0
O 0.216900011	0.5028833090094436	-1.0332700099999998	 0 0 0
O 0.493070021	0.28973	-0.501702094893267	 0 0 0
O 0.504539978	0.721880069635817	-0.4982976699079363	 0 0 0
O 0.006929994	0.21027	-1.001702094893267	 0 0 0
O 0.995460022	0.7781201296358169	-0.998298059093591	 0 0 0
O 0.506929979	0.28973	-0.998298059093591	 0 0 0
O 0.495459989	0.721880069635817	-1.001702094893267	 0 0 0
O 0.993070021	0.21027	-0.4982976699079363	 0 0 0
O 0.004539996	0.7781201296358169	-0.501702094893267	 0 0 0
O 0.7482977601861408	0.221879985	-0.2545401022782045	 0 0 0
O 0.25170198861506216	0.7102700996358169	-0.756929979	 0 0 0
O 0.7517024203702682	0.278119999	-0.754539978	 0 0 0
O 0.24829788910673295	0.789730099635817	-0.2569301002782045	 0 0 0
O 0.25170198861506216	0.221879985	-1.2454601282782045	 0 0 0
O 0.7482977601861408	0.7102700996358169	-0.7430700210000001	 0 0 0
O 0.24829788910673295	0.278119999	-0.745459989	 0 0 0
O 0.7517024203702682	0.789730099635817	-1.2430701272782043	 0 0 0

K_POINTS automatic
6 6 6 0 0 0
