
&CONTROL
    calculation   = 'vc-relax'
    restart_mode  = 'from_scratch'
    prefix        = 'Landau_36'
    pseudo_dir    = '/cluster/scratch/mnoe/QE/pps'
    outdir        = './'
    forc_conv_thr = 1.0d-7
    etot_conv_thr = 1.0d-7

/
&SYSTEM
    ibrav       = 0
    nat         = 32
    ntyp        = 2
    ecutwfc     = 120
    occupations = 'smearing'
    degauss     = 7.35d-4
    tot_charge  = -0.0
/
&ELECTRONS
    conv_thr    = 1.0d-8
    diagonalization = 'david'
/


&IONS
ion_dynamics = 'bfgs'
/

&CELL
cell_dynamics = 'bfgs'
cell_dofree = 'all'
/
CELL_PARAMETERS angstrom
        7.3236460686         0.0000000000         0.0000000000
        0.0000000000         7.7495899200         0.0000000000
        0.0000000000         0.0000000000         7.3236460686

ATOMIC_SPECIES
W 183.84 W_ONCV_LDA-4.0.upf
O 15.9994 O_ONCV_LDA-3.0.upf

ATOMIC_POSITIONS crystal
W 0.282370006	0.29408559004	0.25093002400000003	 0 0 0
W -0.2509299930000002	0.70591440996	-0.7176299450000002	 0 0 0
W 0.217629978	0.20591440876	0.750930026	 0 0 0
W 0.7509300240000001	0.79408555904	0.782370022	 0 0 0
W 0.717629976	0.29408559004	0.74906999	 0 0 0
W 0.25093001	0.70591440996	0.7176299939999999	 0 0 0
W -0.2176299450000001	0.20591440876	-0.7509299930000003	 0 0 0
W 0.24906997400000003	0.79408555904	0.21762997599999995	 0 0 0
O 0.2855999949999999	0.03145360108	0.275819962	 0 0 0
O -0.275819928	0.9685464510799999	-0.7144000040000001	 0 0 0
O 0.214399972	0.46854638660000003	0.77581996	 0 0 0
O 0.7758199619999999	0.5314536158800001	0.7855999949999999	 0 0 0
O 0.7144000380000001	0.03145360108	0.724180007	 0 0 0
O 0.27581996	0.9685464510799999	0.714399972	 0 0 0
O -0.21440000400000003	0.46854638660000003	-0.7758199280000001	 0 0 0
O 0.2241800069999999	0.5314536158800001	0.21440003800000001	 0 0 0
O 0.4885499750000001	0.288389989	0.7627308472	 0 0 0
O 0.49764994900000004	0.7253699909999999	0.7372691899999999	 0 0 0
O -0.988549975	0.21161001200000001	1.26273082836	 0 0 0
O 0.0023500910000000073	0.7746299809999999	0.23726921632	 0 0 0
O 0.511450025	0.288389989	0.23726921632	 0 0 0
O 0.5023500510000001	0.7253699909999999	1.26273082836	 0 0 0
O -0.011449985999999959	0.21161001200000001	0.7372691899999999	 0 0 0
O -1.002350052	0.7746299809999999	0.7627308472	 0 0 0
O 0.7627309158399999	0.22536998999999996	2.0023500839999997	 0 0 0
O 0.23726920464000004	0.7116099979999999	0.48855000700000006	 0 0 0
O 0.73726915436	0.274630011	0.502350084	 0 0 0
O 0.2627308642799999	0.7883899739999999	1.988550008	 0 0 0
O 0.23726920464000004	0.22536998999999996	0.997649942	 0 0 0
O 0.76273091584	0.7116099979999999	0.511450058	 0 0 0
O 0.26273086428	0.274630011	0.497649981	 0 0 0
O 0.73726915436	0.7883899739999999	1.011450018	 0 0 0

K_POINTS automatic
6 6 6 0 0 0
