# Phonon frequency and phonon lifetime in meV 
# Q-point  Mode   Phonon freq (meV)   Phonon linewidth (meV)
        1     1     -0.34734335E-02      0.0000000000E+00
        1     2     -0.34734332E-02      0.0000000000E+00
        1     3     -0.16017790E-02      0.0000000000E+00
        1     4      0.30783147E+01      0.9124543820E-03
        1     5      0.14744497E+02      0.7151789890E-02
        1     6      0.28463458E+02      0.1914338485E-02
        1     7      0.28463458E+02      0.1914338485E-02
        1     8      0.31109659E+02      0.6806684296E-02
        1     9      0.31109659E+02      0.6806684296E-02
        1    10      0.33123782E+02      0.8621147982E-01
        1    11      0.37172255E+02      0.1419723341E-01
        1    12      0.37172255E+02      0.1419723341E-01
        1    13      0.39385844E+02      0.3365210711E-02
        1    14      0.40134886E+02      0.9976578118E-02
        1    15      0.40134886E+02      0.9976578118E-02
        1    16      0.47660922E+02      0.1628082906E-01
        1    17      0.47660922E+02      0.1628082906E-01
        1    18      0.57308928E+02      0.3725815438E-01
        1    19      0.80767301E+02      0.4970254662E-02
        1    20      0.80767301E+02      0.4970254662E-02
        1    21      0.88464369E+02      0.2077192530E-02
        1    22      0.89189320E+02      0.2705416010E+00
        1    23      0.90893405E+02      0.1691006275E-01
        1    24      0.12625766E+03      0.4749424170E-03
        2     1      0.16822735E+00      0.0000000000E+00
        2     2      0.16822735E+00      0.0000000000E+00
        2     3      0.35449475E+00      0.0000000000E+00
        2     4      0.30784927E+01      0.8489404307E-03
        2     5      0.14751900E+02      0.2062718028E-01
        2     6      0.28464220E+02      0.2278655776E-02
        2     7      0.28464220E+02      0.2278655776E-02
        2     8      0.31105082E+02      0.1122436490E-01
        2     9      0.31105082E+02      0.1122436490E-01
        2    10      0.33124053E+02      0.9802900806E-01
        2    11      0.37172274E+02      0.1527682547E-01
        2    12      0.37172274E+02      0.1527682547E-01
        2    13      0.39392505E+02      0.9748084931E-02
        2    14      0.40134117E+02      0.1012639544E-01
        2    15      0.40134117E+02      0.1012639544E-01
        2    16      0.47663411E+02      0.1617227543E-01
        2    17      0.47663411E+02      0.1617227543E-01
        2    18      0.57308839E+02      0.3319780596E-01
        2    19      0.80766759E+02      0.4715573954E-02
        2    20      0.80766759E+02      0.4715573954E-02
        2    21      0.88463499E+02      0.1983491545E-02
        2    22      0.89181938E+02      0.2496739105E+00
        2    23      0.90919088E+02      0.1990915474E-01
        2    24      0.12625863E+03      0.5033208676E-03
        3     1      0.33637503E+00      0.0000000000E+00
        3     2      0.33637503E+00      0.0000000000E+00
        3     3      0.70918702E+00     -0.1580010915E-02
        3     4      0.30790259E+01      0.1428929867E-02
        3     5      0.14774060E+02      0.4152832470E-01
        3     6      0.28466494E+02      0.2708194190E-02
        3     7      0.28466494E+02      0.2708194190E-02
        3     8      0.31091371E+02      0.1662730202E-01
        3     9      0.31091371E+02      0.1662730202E-01
        3    10      0.33124866E+02      0.1196787859E+00
        3    11      0.37172329E+02      0.1289804606E-01
        3    12      0.37172329E+02      0.1289804606E-01
        3    13      0.39412453E+02      0.7811678759E-01
        3    14      0.40131819E+02      0.8558845649E-02
        3    15      0.40131819E+02      0.8558845649E-02
        3    16      0.47670869E+02      0.2030763846E-01
        3    17      0.47670869E+02      0.2030763846E-01
        3    18      0.57308571E+02      0.3120480572E-01
        3    19      0.80765135E+02      0.4069437739E-02
        3    20      0.80765135E+02      0.4069437739E-02
        3    21      0.88460892E+02      0.1725816834E-02
        3    22      0.89161543E+02      0.2046445748E+00
        3    23      0.90994338E+02      0.3112331470E-01
        3    24      0.12626154E+03      0.5809464631E-03
        4     1      0.50424408E+00      0.0000000000E+00
        4     2      0.50424408E+00      0.0000000000E+00
        4     3      0.10642547E+01      0.6234788915E-02
        4     4      0.30799127E+01      0.1156032337E-02
        4     5      0.14810835E+02      0.9097129541E-01
        4     6      0.28470244E+02      0.3384101642E-02
        4     7      0.28470244E+02      0.3384101642E-02
        4     8      0.31068588E+02      0.1544386784E-01
        4     9      0.31068588E+02      0.1544386784E-01
        4    10      0.33126220E+02      0.1482626632E+00
        4    11      0.37172415E+02      0.1886269025E-01
        4    12      0.37172415E+02      0.1886269025E-01
        4    13      0.39445576E+02      0.1280280300E+00
        4    14      0.40128016E+02      0.1219830511E-01
        4    15      0.40128016E+02      0.1219830511E-01
        4    16      0.47683260E+02      0.2069013458E-01
        4    17      0.47683260E+02      0.2069013458E-01
        4    18      0.57308125E+02      0.3042511280E-01
        4    19      0.80762430E+02      0.3380445033E-02
        4    20      0.80762430E+02      0.3380445033E-02
        4    21      0.88456548E+02      0.1532367113E-02
        4    22      0.89132538E+02      0.1790889387E+00
        4    23      0.91114606E+02      0.2011797060E+00
        4    24      0.12626639E+03      0.6901104054E-03
        5     1      0.67171063E+00      0.1160116971E-03
        5     2      0.67171063E+00      0.1160116971E-03
        5     3      0.14198683E+01      0.1081883014E-01
        5     4      0.30811499E+01      0.1324621971E-02
        5     5      0.14861990E+02      0.1292379530E+00
        5     6      0.28475406E+02      0.3847318095E-02
        5     7      0.28475406E+02      0.3847318095E-02
        5     8      0.31036838E+02      0.1322561339E-01
        5     9      0.31036838E+02      0.1322561339E-01
        5    10      0.33128114E+02      0.1695888218E+00
        5    11      0.37172522E+02      0.2314723178E-01
        5    12      0.37172522E+02      0.2314723178E-01
        5    13      0.39491691E+02      0.1369092706E+00
        5    14      0.40122748E+02      0.1506147226E-01
        5    15      0.40122748E+02      0.1506147226E-01
        5    16      0.47700528E+02      0.1817476831E-01
        5    17      0.47700528E+02      0.1817476831E-01
        5    18      0.57307501E+02      0.2820402618E-01
        5    19      0.80758648E+02      0.3387180912E-02
        5    20      0.80758648E+02      0.3387180912E-02
        5    21      0.88450471E+02      0.1810603868E-02
        5    22      0.89100251E+02      0.2434263192E+00
        5    23      0.91274326E+02      0.6250506192E+00
        5    24      0.12627318E+03      0.1362463965E-02
        6     1      0.83864424E+00      0.2121588558E-03
        6     2      0.83864424E+00      0.2121588558E-03
        6     3      0.17761763E+01      0.2055996767E-01
        6     4      0.30827334E+01      0.9515918121E-03
        6     5      0.14927207E+02      0.1545236806E+00
        6     6      0.28481887E+02      0.3975445184E-02
        6     7      0.28481887E+02      0.3975445184E-02
        6     8      0.30996274E+02      0.1227696473E-01
        6     9      0.30996274E+02      0.1227696473E-01
        6    10      0.33130543E+02      0.1699995747E+00
        6    11      0.37172640E+02      0.2261479614E-01
        6    12      0.37172640E+02      0.2261479614E-01
        6    13      0.39550544E+02      0.1503592426E+00
        6    14      0.40116069E+02      0.1443308467E-01
        6    15      0.40116069E+02      0.1443308467E-01
        6    16      0.47722596E+02      0.1663248686E-01
        6    17      0.47722596E+02      0.1663248686E-01
        6    18      0.57306699E+02      0.2650402796E-01
        6    19      0.80753792E+02      0.3522428257E-02
        6    20      0.80753792E+02      0.3522428257E-02
        6    21      0.88442664E+02      0.2082098557E-02
        6    22      0.89069556E+02      0.2836222865E+00
        6    23      0.91468290E+02      0.7189576269E+00
        6    24      0.12628192E+03      0.3633066192E-02
        7     1      0.10049141E+01      0.3171648848E-03
        7     2      0.10049141E+01      0.3171648848E-03
        7     3      0.21332998E+01      0.2804288791E-01
        7     4      0.30846577E+01      0.1007692585E-02
        7     5      0.15006094E+02      0.1643522983E+00
        7     6      0.28489555E+02      0.3641176779E-02
        7     7      0.28489555E+02      0.3641176779E-02
        7     8      0.30947100E+02      0.1118183053E-01
        7     9      0.30947100E+02      0.1118183053E-01
        7    10      0.33133504E+02      0.1513569832E+00
        7    11      0.37172752E+02      0.2474583026E-01
        7    12      0.37172752E+02      0.2474583026E-01
        7    13      0.39621814E+02      0.1663055213E+00
        7    14      0.40108050E+02      0.1560914531E-01
        7    15      0.40108050E+02      0.1560914531E-01
        7    16      0.47749364E+02      0.1537632730E-01
        7    17      0.47749364E+02      0.1537632730E-01
        7    18      0.57305720E+02      0.2410679922E-01
        7    19      0.80747869E+02      0.3385806203E-02
        7    20      0.80747869E+02      0.3385806203E-02
        7    21      0.88433134E+02      0.2153239820E-02
        7    22      0.89044298E+02      0.2875127696E+00
        7    23      0.91692225E+02      0.6556072957E+00
        7    24      0.12629261E+03      0.5061419687E-02
        8     1      0.11703901E+01      0.3899493456E-03
        8     2      0.11703901E+01      0.3899493456E-03
        8     3      0.24913284E+01      0.3140825176E-01
        8     4      0.30869165E+01      0.2284458167E-02
        8     5      0.15098193E+02      0.1946766100E+00
        8     6      0.28498233E+02      0.3910931331E-02
        8     7      0.28498233E+02      0.3910931331E-02
        8     8      0.30889584E+02      0.1142626879E-01
        8     9      0.30889584E+02      0.1142626879E-01
        8    10      0.33136993E+02      0.1727372547E+00
        8    11      0.37172843E+02      0.2492439002E-01
        8    12      0.37172843E+02      0.2492439002E-01
        8    13      0.39705116E+02      0.1826118678E+00
        8    14      0.40098770E+02      0.1600704590E-01
        8    15      0.40098770E+02      0.1600704590E-01
        8    16      0.47780718E+02      0.1501146458E-01
        8    17      0.47780718E+02      0.1501146458E-01
        8    18      0.57304566E+02      0.2286248962E-01
        8    19      0.80740885E+02      0.3399016553E-02
        8    20      0.80740885E+02      0.3399016553E-02
        8    21      0.88421887E+02      0.2165933736E-02
        8    22      0.89027264E+02      0.2796027145E+00
        8    23      0.91942826E+02      0.6716080709E+00
        8    24      0.12630527E+03      0.5569364631E-02
        9     1      0.13349433E+01      0.5788109278E-03
        9     2      0.13349433E+01      0.5788109278E-03
        9     3      0.28503167E+01      0.4201958172E-01
        9     4      0.30895020E+01      0.3317965207E-02
        9     5      0.15202993E+02      0.2268187078E+00
        9     6      0.28507683E+02      0.4444006179E-02
        9     7      0.28507683E+02      0.4444006179E-02
        9     8      0.30824066E+02      0.1162158491E-01
        9     9      0.30824066E+02      0.1162158491E-01
        9    10      0.33141004E+02      0.1916074098E+00
        9    11      0.37172891E+02      0.2476396172E-01
        9    12      0.37172891E+02      0.2476396172E-01
        9    13      0.39800004E+02      0.1964066004E+00
        9    14      0.40088320E+02      0.1576200981E-01
        9    15      0.40088320E+02      0.1576200981E-01
        9    16      0.47816524E+02      0.1546679125E-01
        9    17      0.47816524E+02      0.1546679125E-01
        9    18      0.57303236E+02      0.2383865875E-01
        9    19      0.80732848E+02      0.3498911267E-02
        9    20      0.80732848E+02      0.3498911267E-02
        9    21      0.88408930E+02      0.2799465943E-02
        9    22      0.89020363E+02      0.2925528015E+00
        9    23      0.92217577E+02      0.7269198522E+00
        9    24      0.12631988E+03      0.6065173084E-02
       10     1      0.14984459E+01      0.5943696896E-03
       10     2      0.14984459E+01      0.5943696896E-03
       10     3      0.30924056E+01      0.3181553130E-02
       10     4      0.32102823E+01      0.2403233681E-01
       10     5      0.15319943E+02      0.2096018101E+00
       10     6      0.28517593E+02      0.4669451806E-02
       10     7      0.28517593E+02      0.4669451806E-02
       10     8      0.30750976E+02      0.1114717782E-01
       10     9      0.30750976E+02      0.1114717782E-01
       10    10      0.33145533E+02      0.1922207054E+00
       10    11      0.37172876E+02      0.3274083196E-01
       10    12      0.37172876E+02      0.3274083196E-01
       10    13      0.39905980E+02      0.2612607940E+00
       10    14      0.40076802E+02      0.2060335509E-01
       10    15      0.40076802E+02      0.2060335509E-01
       10    16      0.47856634E+02      0.1493035871E-01
       10    17      0.47856634E+02      0.1493035871E-01
       10    18      0.57301731E+02      0.2306483434E-01
       10    19      0.80723768E+02      0.3696992266E-02
       10    20      0.80723768E+02      0.3696992266E-02
       10    21      0.88394274E+02      0.3475446867E-02
       10    22      0.89024839E+02      0.2914382721E+00
       10    23      0.92514536E+02      0.7416667633E+00
       10    24      0.12633648E+03      0.7144362983E-02
       11     1      0.16607721E+01      0.6520536490E-03
       11     2      0.16607721E+01      0.6520536490E-03
       11     3      0.30956176E+01      0.2315508212E-02
       11     4      0.35712052E+01      0.2360287709E-01
       11     5      0.15448463E+02      0.2079502357E+00
       11     6      0.28527543E+02      0.4576248887E-02
       11     7      0.28527543E+02      0.4576248887E-02
       11     8      0.30670861E+02      0.1018020358E-01
       11     9      0.30670861E+02      0.1018020358E-01
       11    10      0.33150570E+02      0.1897073344E+00
       11    11      0.37172775E+02      0.3470193741E-01
       11    12      0.37172775E+02      0.3470193741E-01
       11    13      0.40022492E+02      0.2872637738E+00
       11    14      0.40064323E+02      0.2245272671E-01
       11    15      0.40064323E+02      0.2245272671E-01
       11    16      0.47900889E+02      0.1467939532E-01
       11    17      0.47900889E+02      0.1467939532E-01
       11    18      0.57300054E+02      0.2322489295E-01
       11    19      0.80713656E+02      0.4260362133E-02
       11    20      0.80713656E+02      0.4260362133E-02
       11    21      0.88377927E+02      0.3970773496E-02
       11    22      0.89041456E+02      0.3108168381E+00
       11    23      0.92832163E+02      0.7762214309E+00
       11    24      0.12635505E+03      0.7788779169E-02
       12     1      0.18217977E+01      0.8876329656E-03
       12     2      0.18217977E+01      0.8876329656E-03
       12     3      0.30991273E+01      0.1539962233E-02
       12     4      0.39330278E+01      0.3234546965E-01
       12     5      0.15587955E+02      0.2216264967E+00
       12     6      0.28536980E+02      0.4739196899E-02
       12     7      0.28536980E+02      0.4739196899E-02
       12     8      0.30584416E+02      0.9896930097E-02
       12     9      0.30584416E+02      0.9896930097E-02
       12    10      0.33156110E+02      0.1977524181E+00
       12    11      0.37172564E+02      0.2759295180E-01
       12    12      0.37172564E+02      0.2759295180E-01
       12    13      0.40050997E+02      0.1848938669E-01
       12    14      0.40050997E+02      0.1848938669E-01
       12    15      0.40148948E+02      0.3291834577E+00
       12    16      0.47949118E+02      0.1302306913E-01
       12    17      0.47949118E+02      0.1302306913E-01
       12    18      0.57298205E+02      0.2208274256E-01
       12    19      0.80702521E+02      0.4701904981E-02
       12    20      0.80702521E+02      0.4701904981E-02
       12    21      0.88359901E+02      0.4227251572E-02
       12    22      0.89070623E+02      0.3351168405E+00
       12    23      0.93169187E+02      0.8773791906E+00
       12    24      0.12637561E+03      0.9182101765E-02
       13     1      0.19814008E+01      0.1263019754E-02
       13     2      0.19814008E+01      0.1263019754E-02
       13     3      0.31029230E+01      0.1173334426E-02
       13     4      0.42956566E+01      0.5045583276E-01
       13     5      0.15737814E+02      0.2366088909E+00
       13     6      0.28545162E+02      0.5017352834E-02
       13     7      0.28545162E+02      0.5017352834E-02
       13     8      0.30492532E+02      0.9582677525E-02
       13     9      0.30492532E+02      0.9582677525E-02
       13    10      0.33162144E+02      0.1834923123E+00
       13    11      0.37172219E+02      0.2286774561E-01
       13    12      0.37172219E+02      0.2286774561E-01
       13    13      0.40036940E+02      0.1473473169E-01
       13    14      0.40036940E+02      0.1473473169E-01
       13    15      0.40284717E+02      0.3658495539E+00
       13    16      0.48001142E+02      0.1225359275E-01
       13    17      0.48001142E+02      0.1225359275E-01
       13    18      0.57296186E+02      0.2369435109E-01
       13    19      0.80690379E+02      0.4797093204E-02
       13    20      0.80690379E+02      0.4797093204E-02
       13    21      0.88340210E+02      0.4962244230E-02
       13    22      0.89112492E+02      0.3678415456E+00
       13    23      0.93524517E+02      0.1026581893E+01
       13    24      0.12639816E+03      0.1063438485E-01
       14     1      0.21394617E+01      0.1414450377E-02
       14     2      0.21394617E+01      0.1414450377E-02
       14     3      0.31069923E+01     -0.2913423577E-03
       14     4      0.46589642E+01      0.4566496074E-01
       14     5      0.15897440E+02      0.2254919590E+00
       14     6      0.28551097E+02      0.5495874762E-02
       14     7      0.28551097E+02      0.5495874762E-02
       14     8      0.30396362E+02      0.9609167056E-02
       14     9      0.30396362E+02      0.9609167056E-02
       14    10      0.33168663E+02      0.1856578661E+00
       14    11      0.37171717E+02      0.2389896031E-01
       14    12      0.37171717E+02      0.2389896031E-01
       14    13      0.40022271E+02      0.1552103404E-01
       14    14      0.40022271E+02      0.1552103404E-01
       14    15      0.40429134E+02      0.3797693414E+00
       14    16      0.48056776E+02      0.1293730279E-01
       14    17      0.48056776E+02      0.1293730279E-01
       14    18      0.57293998E+02      0.2420463980E-01
       14    19      0.80677241E+02      0.4211481674E-02
       14    20      0.80677241E+02      0.4211481674E-02
       14    21      0.88318868E+02      0.5515524393E-02
       14    22      0.89167027E+02      0.4068493563E+00
       14    23      0.93897179E+02      0.1157150072E+01
       14    24      0.12642273E+03      0.1195323112E-01
       15     1      0.22958633E+01      0.1489656214E-02
       15     2      0.22958633E+01      0.1489656214E-02
       15     3      0.31113218E+01     -0.1224439265E-02
       15     4      0.50227920E+01      0.1681439386E-01
       15     5      0.16066241E+02      0.2000800011E+00
       15     6      0.28553455E+02      0.5821307523E-02
       15     7      0.28553455E+02      0.5821307523E-02
       15     8      0.30297402E+02      0.8182206445E-02
       15     9      0.30297402E+02      0.8182206445E-02
       15    10      0.33175657E+02      0.1876997016E+00
       15    11      0.37171032E+02      0.3010045111E-01
       15    12      0.37171032E+02      0.3010045111E-01
       15    13      0.40007112E+02      0.1939222875E-01
       15    14      0.40007112E+02      0.1939222875E-01
       15    15      0.40581510E+02      0.3964733239E+00
       15    16      0.48115830E+02      0.1276817226E-01
       15    17      0.48115830E+02      0.1276817226E-01
       15    18      0.57291643E+02      0.2341469786E-01
       15    19      0.80663124E+02      0.4094607086E-02
       15    20      0.80663124E+02      0.4094607086E-02
       15    21      0.88295888E+02      0.6089983576E-02
       15    22      0.89234045E+02      0.4140225956E+00
       15    23      0.94286274E+02      0.1288885594E+01
       15    24      0.12644930E+03      0.1347480725E-01
       16     1      0.24504914E+01      0.1805382489E-02
       16     2      0.24504914E+01      0.1805382489E-02
       16     3      0.31158975E+01     -0.5130838117E-03
       16     4      0.53869537E+01      0.1401785231E-01
       16     5      0.16243646E+02      0.2065915859E+00
       16     6      0.28550469E+02      0.6339546347E-02
       16     7      0.28550469E+02      0.6339546347E-02
       16     8      0.30197591E+02      0.7648846601E-02
       16     9      0.30197591E+02      0.7648846601E-02
       16    10      0.33183116E+02      0.1995566296E+00
       16    11      0.37170141E+02      0.3677608218E-01
       16    12      0.37170141E+02      0.3677608218E-01
       16    13      0.39991580E+02      0.2403047912E-01
       16    14      0.39991580E+02      0.2403047912E-01
       16    15      0.40741138E+02      0.4584626048E+00
       16    16      0.48178112E+02      0.1045299061E-01
       16    17      0.48178112E+02      0.1045299061E-01
       16    18      0.57289123E+02      0.2067171542E-01
       16    19      0.80648042E+02      0.5116308647E-02
       16    20      0.80648042E+02      0.5116308647E-02
       16    21      0.88271288E+02      0.6915821846E-02
       16    22      0.89313254E+02      0.4315654573E+00
       16    23      0.94690948E+02      0.1438500806E+01
       16    24      0.12647790E+03      0.1556378573E-01
       17     1      0.26032348E+01      0.2501988296E-02
       17     2      0.26032348E+01      0.2501988296E-02
       17     3      0.31207046E+01     -0.5740615612E-03
       17     4      0.57512386E+01      0.4533356124E-01
       17     5      0.16429102E+02      0.2278931940E+00
       17     6      0.28539837E+02      0.6488123917E-02
       17     7      0.28539837E+02      0.6488123917E-02
       17     8      0.30099413E+02      0.8001180339E-02
       17     9      0.30099413E+02      0.8001180339E-02
       17    10      0.33191028E+02      0.1772029577E+00
       17    11      0.37169023E+02      0.2651919268E-01
       17    12      0.37169023E+02      0.2651919268E-01
       17    13      0.39975795E+02      0.1783019017E-01
       17    14      0.39975795E+02      0.1783019017E-01
       17    15      0.40907295E+02      0.5468214172E+00
       17    16      0.48243427E+02      0.1115745469E-01
       17    17      0.48243427E+02      0.1115745469E-01
       17    18      0.57286440E+02      0.2049283239E-01
       17    19      0.80632014E+02      0.5613049427E-02
       17    20      0.80632014E+02      0.5613049427E-02
       17    21      0.88245086E+02      0.7124957745E-02
       17    22      0.89404276E+02      0.4431954776E+00
       17    23      0.95110370E+02      0.1585671548E+01
       17    24      0.12650853E+03      0.1795541664E-01
       18     1      0.27539856E+01      0.2626979464E-02
       18     2      0.27539856E+01      0.2626979464E-02
       18     3      0.31257277E+01      0.2292708835E-03
       18     4      0.61154158E+01      0.2993991609E-01
       18     5      0.16622087E+02      0.2253255741E+00
       18     6      0.28518672E+02      0.6294753663E-02
       18     7      0.28518672E+02      0.6294753663E-02
       18     8      0.30005937E+02      0.7430905607E-02
       18     9      0.30005937E+02      0.7430905607E-02
       18    10      0.33199383E+02      0.1788853813E+00
       18    11      0.37167654E+02      0.2109604599E-01
       18    12      0.37167654E+02      0.2109604599E-01
       18    13      0.39959870E+02      0.1402094125E-01
       18    14      0.39959870E+02      0.1402094125E-01
       18    15      0.41079253E+02      0.5242287974E+00
       18    16      0.48311585E+02      0.1036026991E-01
       18    17      0.48311585E+02      0.1036026991E-01
       18    18      0.57283596E+02      0.1994483297E-01
       18    19      0.80615056E+02      0.5634758221E-02
       18    20      0.80615056E+02      0.5634758221E-02
       18    21      0.88217301E+02      0.7318955222E-02
       18    22      0.89506664E+02      0.4705797274E+00
       18    23      0.95543724E+02      0.1744187948E+01
       18    24      0.12654118E+03      0.1849910981E-01
       19     1      0.29026394E+01      0.3086989811E-02
       19     2      0.29026394E+01      0.3086989811E-02
       19     3      0.31309510E+01      0.1878094710E-02
       19     4      0.64792378E+01      0.3876657353E-01
       19     5      0.16822105E+02      0.2289364226E+00
       19     6      0.28483596E+02      0.6829392702E-02
       19     7      0.28483596E+02      0.6829392702E-02
       19     8      0.29920727E+02      0.8133143852E-02
       19     9      0.29920727E+02      0.8133143852E-02
       19    10      0.33208169E+02      0.1970225812E+00
       19    11      0.37166015E+02      0.1624074094E-01
       19    12      0.37166015E+02      0.1624074094E-01
       19    13      0.39943918E+02      0.1104146873E-01
       19    14      0.39943918E+02      0.1104146873E-01
       19    15      0.41256279E+02      0.5465252257E+00
       19    16      0.48382392E+02      0.1047083746E-01
       19    17      0.48382392E+02      0.1047083746E-01
       19    18      0.57280593E+02      0.2153795891E-01
       19    19      0.80597189E+02      0.4915585732E-02
       19    20      0.80597189E+02      0.4915585732E-02
       19    21      0.88187952E+02      0.7894185092E-02
       19    22      0.89619920E+02      0.4809513299E+00
       19    23      0.95990194E+02      0.1935465286E+01
       19    24      0.12657588E+03      0.2069664966E-01
       20     1      0.30490955E+01      0.3506133997E-02
       20     2      0.30490955E+01      0.3506133997E-02
       20     3      0.31363579E+01      0.6426123765E-04
       20     4      0.68424443E+01      0.1538882381E-01
       20     5      0.17028691E+02      0.2116157044E+00
       20     6      0.28431101E+02      0.7706839580E-02
       20     7      0.28431101E+02      0.7706839580E-02
       20     8      0.29847480E+02      0.7535288329E-02
       20     9      0.29847480E+02      0.7535288329E-02
       20    10      0.33217371E+02      0.2244511805E+00
       20    11      0.37164088E+02      0.1765780984E-01
       20    12      0.37164088E+02      0.1765780984E-01
       20    13      0.39928046E+02      0.1203510110E-01
       20    14      0.39928046E+02      0.1203510110E-01
       20    15      0.41437648E+02      0.7482048539E+00
       20    16      0.48455662E+02      0.1059751018E-01
       20    17      0.48455662E+02      0.1059751018E-01
       20    18      0.57277434E+02      0.2267908378E-01
       20    19      0.80578432E+02      0.4679279715E-02
       20    20      0.80578432E+02      0.4679279715E-02
       20    21      0.88157062E+02      0.9600075805E-02
       20    22      0.89743501E+02      0.5014415544E+00
       20    23      0.96448962E+02      0.2138291517E+01
       20    24      0.12661261E+03      0.2137818646E-01
       21     1      0.31419316E+01     -0.1103092234E-02
       21     2      0.31932573E+01      0.3694436198E-02
       21     3      0.31932573E+01      0.3694436198E-02
       21     4      0.72047658E+01      0.1624570458E-01
       21     5      0.17241409E+02      0.2079397918E+00
       21     6      0.28358176E+02      0.7382229711E-02
       21     7      0.28358176E+02      0.7382229711E-02
       21     8      0.29789395E+02      0.6131187322E-02
       21     9      0.29789395E+02      0.6131187322E-02
       21    10      0.33226978E+02      0.2020061244E+00
       21    11      0.37161853E+02      0.1791051646E-01
       21    12      0.37161853E+02      0.1791051646E-01
       21    13      0.39912357E+02      0.1298306299E-01
       21    14      0.39912357E+02      0.1298306299E-01
       21    15      0.41622639E+02      0.7691151120E+00
       21    16      0.48531210E+02      0.8921833669E-02
       21    17      0.48531210E+02      0.8921833669E-02
       21    18      0.57274121E+02      0.2244079014E-01
       21    19      0.80558805E+02      0.4854214567E-02
       21    20      0.80558805E+02      0.4854214567E-02
       21    21      0.88124653E+02      0.1269297280E-01
       21    22      0.89876830E+02      0.5918876655E+00
       21    23      0.96919206E+02      0.2549802672E+01
       21    24      0.12665139E+03      0.2410562057E-01
       22     1      0.31476549E+01     -0.4093806236E-02
       22     2      0.33350324E+01      0.3922348566E-02
       22     3      0.33350324E+01      0.3922348566E-02
       22     4      0.75659277E+01      0.2876065050E-01
       22     5      0.17459856E+02      0.2238195957E+00
       22     6      0.28263029E+02      0.7411361157E-02
       22     7      0.28263029E+02      0.7411361157E-02
       22     8      0.29748455E+02      0.6122315329E-02
       22     9      0.29748455E+02      0.6122315329E-02
       22    10      0.33236975E+02      0.2097950721E+00
       22    11      0.37159297E+02      0.1503788837E-01