&CONTROL
    calculation   = 'scf'
    restart_mode  = 'from_scratch'
    prefix        = 'chempot_6'
    pseudo_dir    = '/cluster/scratch/mnoe/QE/pps'
    outdir        = './'
/
&SYSTEM
    ibrav       = 0
    nat         = 32 
    ntyp        = 2
    ecutwfc     = 120
    occupations = 'smearing'
    degauss     = 7.35d-4
    tot_charge  = -.60
/
&ELECTRONS
    conv_thr    = 1.0d-8
    diagonalization = 'david'
/
CELL_PARAMETERS angstrom
   7.395094543   0.000000000   0.000000000
   0.000000000   7.689182969   0.000000000
   0.000000000   0.000000000   7.396974899


ATOMIC_SPECIES
W 183.84 W_ONCV_LDA-4.0.upf
O 15.9994 O_ONCV_LDA-3.0.upf

ATOMIC_POSITIONS crystal
W 0.244910008	0.28559559904000004	0.0048	
W 0.755089992	0.71440440096	0.995199951	
W 0.255089992	0.21440441101	0.504800017	
W 0.744910008	0.78559556804	0.495200016	
W 0.755089992	0.28559559904000004	0.495200016	
W 0.244910008	0.71440440096	0.504800017	
W 0.744910008	0.21440441101	0.995199951	
W 0.255089992	0.78559556804	0.0048	
O 0.240619996	0.015388600329999998	0.00149	
O 0.759379955	0.98461143158	0.998509979	
O 0.259379988	0.48461139035	0.501489988	
O 0.740620045	0.51538858888	0.498510012	
O 0.759379955	0.015388600329999998	0.498510012	
O 0.240619996	0.98461143158	0.501489988	
O 0.740620045	0.48461139035	0.998509979	
O 0.259379988	0.51538858888	0.00149	
O 0.501389976	0.240369998	0.4688483172	
O 0.498610024	0.759629986	0.53115167125	
O 0.998609991	0.259629986	0.96884833436	
O 0.00138998	0.740370045	0.03115171332	
O 0.498610024	0.240369998	0.03115171332	
O 0.501389976	0.759629986	0.96884833436	
O 0.00138998	0.259629986	0.53115167125	
O 0.998609991	0.740370045	0.4688483172	
O 0.71884836109	0.247899992	0.747889984	
O 0.28115169864	0.752099962	0.25211	
O 0.7811516603599999	0.252099992	0.24789	
O 0.21884833353	0.747900008	0.752110016	
O 0.28115169864	0.247899992	0.752110016	
O 0.71884836109	0.752099962	0.24789	
O 0.21884833353	0.252099992	0.25211	
O 0.7811516603599999	0.747900008	0.747889984	

K_POINTS automatic
6 6 6 0 0 0
