&CONTROL
    calculation   = 'scf'
    restart_mode  = 'from_scratch'
    prefix        = 'Landau_28'
    pseudo_dir    = '/cluster/scratch/mnoe/QE/pps'
    outdir        = './'
/
&SYSTEM
    ibrav       = 0
    nat         = 32
    ntyp        = 2
    ecutwfc     = 120
    occupations = 'smearing'
    degauss     = 7.35d-4
    tot_charge  = -1.0
/
&ELECTRONS
    conv_thr    = 1.0d-8
    diagonalization = 'david'
/

CELL_PARAMETERS angstrom
   7.451231925   0.000000000   0.000000000
   0.000000000   7.576700156   0.000000000
   0.000000000   0.000000000   7.436472770

ATOMIC_SPECIES
W 183.84 W_ONCV_LDA-4.0.upf
O 15.9994 O_ONCV_LDA-3.0.upf

ATOMIC_POSITIONS crystal
W        0.237049992	0.29136879292	0.01223	
W        0.762949975	0.7086312070799999	0.987770032	
W        0.262950008	0.20863120948	0.512229968	
W        0.737050025	0.79136876192	0.48777	
W       0.762949975	0.29136879292	0.48777	
W       0.237049992	0.7086312070799999	0.512229968	
W       0.737050025	0.20863120948	0.987770032	
W       0.262950008	0.79136876192	0.01223	
O        0.226109989	0.026312800840000004	0.0038	
O        0.773890011	0.97368724484	0.996200004	
O        0.273890011	0.4736871878	0.503799963	
O        0.726109989	0.5263128072400001	0.496200004	
O        0.773890011	0.026312800840000004	0.496200004	
O        0.226109989	0.97368724484	0.503799963	
O        0.726109989	0.4736871878	0.996200004	
O        0.273890011	0.5263128072400001	0.0038	
O    0.503539971	0.225490008	0.49868843760000003	
O    0.496460029	0.774510053	0.501311584	
O    0.996459996	0.274509992	0.99868843028	
O    0.003540039	0.725489978	0.0013116153599999902	
O   0.496460029	0.225490008	0.0013116153599999902	
O   0.503539971	0.774510053	0.99868843028	
O   0.003540039	0.274509992	0.501311584	
O   0.996459996	0.725489978	0.49868843760000003	
O   0.74868849832	0.244650006	0.744629961	
O   0.25131160272	0.755349979	0.255370022	
O   0.7513115562799999	0.255349994	0.244629978	
O   0.24868845444	0.744649991	0.755370039	
O   0.25131160272	0.244650006	0.755370039	
O   0.74868849832	0.755349979	0.244629978	
O   0.24868845444	0.255349994	0.255370022	
O   0.7513115562799999	0.744649991	0.744629961	

K_POINTS automatic
6 6 6 0 0 0
