&CONTROL
    calculation   = 'scf'
    restart_mode  = 'from_scratch'
    prefix        = 'Landau_13'
    pseudo_dir    = '/cluster/scratch/mnoe/QE/pps'
    outdir        = './'
/
&SYSTEM
    ibrav       = 0
    nat         = 32
    ntyp        = 2
    ecutwfc     = 120
    occupations = 'smearing'
    degauss     = 7.35d-4
    tot_charge  = -1.0
/
&ELECTRONS
    conv_thr    = 1.0d-8
    diagonalization = 'david'
/

CELL_PARAMETERS angstrom
   7.420215976   0.000000000   0.000000000
   0.000000000   7.601985632   0.000000000
   0.000000000   0.000000000   7.435575566

ATOMIC_SPECIES
W 183.84 W_ONCV_LDA-4.0.upf
O 15.9994 O_ONCV_LDA-3.0.upf

ATOMIC_POSITIONS crystal
W 0.23230367392788173	0.2754955130574062	0.005349812621432376	
W 0.7563536397593063	0.7245044869425938	-0.017361173728567658	
W 0.2676963260721183	0.22450450405705835	0.5053498136026869	
W 0.7436463000443632	0.7754955476058102	0.48263879930268694	
W 0.7676962779443631	0.2754955130574062	0.49465018639731306	
W 0.24364632607211828	0.7245044869425938	0.5173612006973131	
W 0.7323036618593062	0.22450450405705835	-0.00534979767143241	
W 0.2563536739278817	0.7754955476058102	0.017361188678567622	
O 0.22605273706341814	0.006586124191528225	-0.007550181327828467	
O 0.7704216882819839	-0.006586145595285716	-0.01460918587782844	
O 0.27394724182372315	0.4934138889531182	0.49244979105931275	
O 0.729578241782723	0.5065861455952857	0.4853908034093128	
O 0.773947194982723	0.006586124191528225	0.5075501926848005	
O 0.22957823532372312	-0.006586145595285716	0.5146091803348005	
O 0.7260527350819839	0.4934138889531182	0.007550176777828493	
O 0.27042174356341814	0.5065861455952857	0.014609181327828466	
O 0.5057789287366584	0.22476331218026568	0.46510243416960945	
O 0.4992009183366585	0.7702763422167166	0.5348976026077237	
O -0.0057789290855730265	0.27523666831973426	0.9651024671696095	
O 0.0007990702644269836	0.7297237500197798	0.03489752262538054	
O 0.4942210712633415	0.22476331218026568	0.03489752262538054	
O 0.5007990816633415	0.7702763422167166	0.9651024671696095	
O 0.005778896236658459	0.27523666831973426	0.5348976026077237	
O -0.0007991031133415503	0.7297237500197798	0.46510243416960945	
O 0.7151024312237105	0.2563993604845908	0.7466571269216922	
O 0.2848975319989562	0.7663314191100042	0.2566281318402677	
O 0.784897636439158	0.24360062977644667	0.2466571922902677	
O 0.21510245016960944	0.7336686734518602	0.7566281087216922	
O 0.2848975319989562	0.2563993604845908	0.7533428323599022	
O 0.7151024312237105	0.7663314191100042	0.24337191040973233	
O 0.21510245016960944	0.24360062977644667	0.25334284995973233	
O 0.784897636439158	0.7336686734518602	0.7433718505599022	

K_POINTS automatic
6 6 6 0 0 0
