
&CONTROL
    calculation   = 'vc-relax'
    restart_mode  = 'from_scratch'
    prefix        = 'Landau_29'
    pseudo_dir    = '/cluster/scratch/mnoe/QE/pps'
    outdir        = './'
    forc_conv_thr = 1.0d-7
    etot_conv_thr = 1.0d-7

/
&SYSTEM
    ibrav       = 0
    nat         = 32
    ntyp        = 2
    ecutwfc     = 120
    occupations = 'smearing'
    degauss     = 7.35d-4
    tot_charge  = -0.0
/
&ELECTRONS
    conv_thr    = 1.0d-8
    diagonalization = 'david'
/


&IONS
ion_dynamics = 'bfgs'
/

&CELL
cell_dynamics = 'bfgs'
cell_dofree = 'all'
/
CELL_PARAMETERS angstrom
        7.3236460686         0.0000000000         0.0000000000
        0.0000000000         7.7495899200         0.0000000000
        0.0000000000         0.0000000000         7.3236460686

ATOMIC_SPECIES
W 183.84 W_ONCV_LDA-4.0.upf
O 15.9994 O_ONCV_LDA-3.0.upf

ATOMIC_POSITIONS crystal
W 0.24665067090630619	0.2704714669036269	0.0031628531143870274	 0 0 0
W 0.7533492654784004	0.7295285330963731	-0.0031628489503562718	 0 0 0
W 0.25334932909369384	0.22952855187996868	0.5031628549248351	 0 0 0
W 0.7466506134465366	0.7704715531950942	0.4968371450751648	 0 0 0
W 0.7533492654784004	0.2704714669036269	0.4968371450751648	 0 0 0
W 0.24665067090630619	0.7295285330963731	0.5031628549248351	 0 0 0
W 0.7466506134465366	0.22952855187996868	-0.0031628489503562718	 0 0 0
W 0.25334932909369384	0.7704715531950942	0.0031628531143870274	 0 0 0
O 0.243820938080592	0.005217425023919286	0.000983073350203103	 0 0 0
O 0.7561789925106805	-0.005217481479429416	-0.0009830746175168068	 0 0 0
O 0.25617905902269095	0.49478260481203795	0.5009830686430379	 0 0 0
O 0.7438208864142565	0.5052174814794295	0.49901692538248316	 0 0 0
O 0.7561789925106805	0.005217425023919286	0.49901692538248316	 0 0 0
O 0.243820938080592	-0.005217481479429416	0.5009830686430379	 0 0 0
O 0.7438208864142565	0.49478260481203795	-0.0009830746175168068	 0 0 0
O 0.25617905902269095	0.5052174814794295	0.000983073350203103	 0 0 0
O 0.5009160882166878	0.24366162117724913	0.47738721553344343	 0 0 0
O 0.49908391178331224	0.756338423292359	0.5226128763252151	 0 0 0
O -0.0009160941911666805	0.2563383733914064	0.9773872485334435	 0 0 0
O 0.00091607916444696	0.7436616710782017	0.022612694525876324	 0 0 0
O 0.49908391178331224	0.24366162117724913	0.022612694525876324	 0 0 0
O 0.5009160882166878	0.756338423292359	0.9773872485334435	 0 0 0
O 0.00091607916444696	0.2563383733914064	0.5226128763252151	 0 0 0
O -0.0009160941911666805	0.7436616710782017	0.47738721553344343	 0 0 0
O 0.7273871842123163	0.24861681796880203	0.7486113282593321	 0 0 0
O 0.27261272392902486	0.7513832321131954	0.25138861120313644	 0 0 0
O 0.7726129368627467	0.25138318203119797	0.2486114005647766	 0 0 0
O 0.22738723153344345	0.7486168624384101	0.751388550665605	 0 0 0
O 0.27261272392902486	0.24861681796880203	0.751388550665605	 0 0 0
O 0.7273871842123163	0.7513832321131954	0.2486114005647766	 0 0 0
O 0.22738723153344345	0.25138318203119797	0.25138861120313644	 0 0 0
O 0.7726129368627467	0.7486168624384101	0.7486113282593321	 0 0 0

K_POINTS automatic
6 6 6 0 0 0
