
&CONTROL
    calculation   = 'vc-relax'
    restart_mode  = 'from_scratch'
    prefix        = 'Landau_31'
    pseudo_dir    = '/cluster/scratch/mnoe/QE/pps'
    outdir        = './'
    forc_conv_thr = 1.0d-7
    etot_conv_thr = 1.0d-7

/
&SYSTEM
    ibrav       = 0
    nat         = 32
    ntyp        = 2
    ecutwfc     = 120
    occupations = 'smearing'
    degauss     = 7.35d-4
    tot_charge  = -0.0
/
&ELECTRONS
    conv_thr    = 1.0d-8
    diagonalization = 'david'
/


&IONS
ion_dynamics = 'bfgs'
/

&CELL
cell_dynamics = 'bfgs'
cell_dofree = 'all'
/
CELL_PARAMETERS angstrom
        7.3236460686         0.0000000000         0.0000000000
        0.0000000000         7.7495899200         0.0000000000
        0.0000000000         0.0000000000         7.3236460686

ATOMIC_SPECIES
W 183.84 W_ONCV_LDA-4.0.upf
O 15.9994 O_ONCV_LDA-3.0.upf

ATOMIC_POSITIONS crystal
W 0.25	0.26952255444066997	0.0	 0 0 0
W 0.749999934418377	0.73047744555933	0.0	 0 0 0
W 0.25	0.23047746465818125	0.5	 0 0 0
W 0.749999934418377	0.7695226505050646	0.5	 0 0 0
W 0.749999934418377	0.26952255444066997	0.5	 0 0 0
W 0.25	0.73047744555933	0.5	 0 0 0
W 0.749999934418377	0.23047746465818125	0.0	 0 0 0
W 0.25	0.7695226505050646	0.0	 0 0 0
O 0.25	0.00495891312764504	0.0	 0 0 0
O 0.749999934418377	0.9950410237964747	0.0	 0 0 0
O 0.25	0.4950411198608694	0.5	 0 0 0
O 0.749999934418377	0.5049589762035253	0.5	 0 0 0
O 0.749999934418377	0.00495891312764504	0.5	 0 0 0
O 0.25	0.9950410237964747	0.5	 0 0 0
O 0.749999934418377	0.4950411198608694	0.0	 0 0 0
O 0.25	0.5049589762035253	0.0	 0 0 0
O 0.5	0.25	0.4797074932108436	 0 0 0
O 0.5	0.7500000464827716	0.5202926090512536	 0 0 0
O 0.0	0.25	0.9797075262108437	 0 0 0
O 0.0	0.7500000464827716	0.020292408021316002	 0 0 0
O 0.5	0.25	0.020292408021316002	 0 0 0
O 0.5	0.7500000464827716	0.9797075262108437	 0 0 0
O 0.0	0.25	0.5202926090512536	 0 0 0
O 0.0	0.7500000464827716	0.4797074932108436	 0 0 0
O 0.7297074565303693	0.25	0.749999934418377	 0 0 0
O 0.27029244120753315	0.7500000464827716	0.25	 0 0 0
O 0.7702926746328767	0.25	0.25	 0 0 0
O 0.22970750921084365	0.7500000464827716	0.749999934418377	 0 0 0
O 0.27029244120753315	0.25	0.749999934418377	 0 0 0
O 0.7297074565303693	0.7500000464827716	0.25	 0 0 0
O 0.22970750921084365	0.25	0.25	 0 0 0
O 0.7702926746328767	0.7500000464827716	0.749999934418377	 0 0 0

K_POINTS automatic
6 6 6 0 0 0
