
&CONTROL
    calculation   = 'vc-relax'
    restart_mode  = 'from_scratch'
    prefix        = 'Landau_2'
    pseudo_dir    = '/cluster/scratch/mnoe/QE/pps'
    outdir        = './'
    forc_conv_thr = 1.0d-7
    etot_conv_thr = 1.0d-7

/
&SYSTEM
    ibrav       = 0
    nat         = 32
    ntyp        = 2
    ecutwfc     = 120
    occupations = 'smearing'
    degauss     = 7.35d-4
    tot_charge  = -0.0
/
&ELECTRONS
    conv_thr    = 1.0d-8
    diagonalization = 'david'
/


&IONS
ion_dynamics = 'bfgs'
/

&CELL
cell_dynamics = 'bfgs'
cell_dofree = 'all'
/
CELL_PARAMETERS angstrom
        7.3236460686         0.0000000000         0.0000000000
        0.0000000000         7.7495899200         0.0000000000
        0.0000000000         0.0000000000         7.3236460686

ATOMIC_SPECIES
W 183.84 W_ONCV_LDA-4.0.upf
O 15.9994 O_ONCV_LDA-3.0.upf

ATOMIC_POSITIONS crystal
W 0.249080001	0.2816611660915953	0.00087	 0 0 0
W 0.7509199649430516	0.7183388339084047	0.99913004	 0 0 0
W 0.250919999	0.218338848974464	0.500869993	 0 0 0
W 0.7490800329430516	0.7816611371394329	0.499130007	 0 0 0
W 0.7509199649430516	0.2816611660915953	0.499130007	 0 0 0
W 0.249080001	0.7183388339084047	0.500869993	 0 0 0
W 0.7490800329430516	0.218338848974464	0.99913004	 0 0 0
W 0.250919999	0.7816611371394329	0.00087	 0 0 0
O 0.248289999	0.008265830929355858	0.00027	 0 0 0
O 0.7517099679430516	0.9917341906833993	0.999729981	 0 0 0
O 0.251710001	0.49173416173123696	0.500270019	 0 0 0
O 0.7482900299430516	0.5082658093166007	0.499729981	 0 0 0
O 0.7517099679430516	0.008265830929355858	0.499729981	 0 0 0
O 0.248289999	0.9917341906833993	0.500270019	 0 0 0
O 0.7482900299430516	0.49173416173123696	0.999729981	 0 0 0
O 0.251710001	0.5082658093166007	0.00027	 0 0 0
O 0.500249997	0.248249988	0.4500261993636663	 0 0 0
O 0.499750003	0.7517499659908892	0.5499737698162899	 0 0 0
O 0.999750035	0.251749996	0.9500262323636662	 0 0 0
O 0.000249982	0.7482500049908891	0.049973814786673926	 0 0 0
O 0.499750003	0.248249988	0.049973814786673926	 0 0 0
O 0.500249997	0.7517499659908892	0.9500262323636662	 0 0 0
O 0.000249982	0.251749996	0.5499737698162899	 0 0 0
O 0.999750035	0.7482500049908891	0.4500261993636663	 0 0 0
O 0.7000262312406585	0.249620007	0.7496200059430516	 0 0 0
O 0.29997379957938525	0.7503800099908892	0.250379977	 0 0 0
O 0.7999737708732384	0.250379978	0.249619958	 0 0 0
O 0.2000262153636663	0.7496200229908891	0.7503799919430516	 0 0 0
O 0.29997379957938525	0.249620007	0.7503799919430516	 0 0 0
O 0.7000262312406585	0.7503800099908892	0.249619958	 0 0 0
O 0.2000262153636663	0.250379978	0.250379977	 0 0 0
O 0.7999737708732384	0.7496200229908891	0.7496200059430516	 0 0 0

K_POINTS automatic
6 6 6 0 0 0
