&CONTROL
    calculation   = 'scf'
    restart_mode  = 'from_scratch'
    prefix        = 'Landau_25'
    pseudo_dir    = '/cluster/scratch/mnoe/QE/pps'
    outdir        = './'
/
&SYSTEM
    ibrav       = 0
    nat         = 16
    ntyp        = 2
    ecutwfc     = 120
    occupations = 'smearing'
    degauss     = 7.35d-4
    tot_charge  = -0.5
/
&ELECTRONS
    conv_thr    = 1.0d-8
    diagonalization = 'david'
/

CELL_PARAMETERS angstrom
   5.253293009   0.000000000   0.000000000
   0.000000000   5.253293009   0.000000000
   0.000000000   0.000000000   7.648345428

ATOMIC_SPECIES
W 183.84 W_ONCV_LDA-4.0.upf
O 15.9994 O_ONCV_LDA-3.0.upf

ATOMIC_POSITIONS crystal
W       0.2499999999999363	0.24999999999988654	0.20963258363686027	
W       0.7500000229999442	0.7500000229999789	0.7903674313607228	
W       0.7500000230000186	0.7500000230000483	0.2903674313631383	
W       0.24999999999992467	0.25000000000003586	0.7096325686392774	
O      0.2499999999997295	0.24999999999991432	0.47560835276829694	
O      0.7500000229999926	0.7500000230003225	0.5243916472354186	
O      0.7500000229998719	0.7500000230000189	0.024391660231708145	
O      0.24999999999976857	0.2500000000000538	0.9756083527645729	
O       0.4932953070289665	0.5067046469709613	0.25000000000004186	
O       0.5067046929977186	0.49329535300231164	0.7499999999999986	
O       0.006704675971300242	0.9932953530285618	0.2500000000000041	
O       0.9932952610026464	0.0067047099974536575	0.7500000000002042	
O       0.993295353028723	0.49329530702868574	0.250000000000157	
O       0.0067047099976987184	0.5067046929976947	0.7499999999999752	
O       0.5067046469711577	0.006704675971208163	0.2499999999998815	
O       0.4932953530026637	0.9932952610025981	0.7499999999997451	

K_POINTS automatic
9 9 6 0 0 0
