&CONTROL
    calculation   = 'scf'
    restart_mode  = 'from_scratch'
    prefix        = 'Landau_6'
    pseudo_dir    = '/cluster/scratch/mnoe/QE/pps'
    outdir        = './'
/
&SYSTEM
    ibrav       = 0
    nat         = 32
    ntyp        = 2
    ecutwfc     = 120
    occupations = 'smearing'
    degauss     = 7.35d-4
    tot_charge  = -0.6
/
&ELECTRONS
    conv_thr    = 1.0d-8
    diagonalization = 'david'
/

CELL_PARAMETERS angstrom
   7.344711370   0.000000000   0.000000000
   0.000000000   7.706717178   0.000000000
   0.000000000   0.000000000   7.344711370

ATOMIC_SPECIES
W 183.84 W_ONCV_LDA-4.0.upf
O 15.9994 O_ONCV_LDA-3.0.upf

ATOMIC_POSITIONS crystal
W 0.255199991	0.2805921259968033	-0.994530032	
W 0.7445300251539783	0.7194078740031967	-0.994799944	
W 0.244800009	0.21940788943107306	-0.49453	
W 0.7554699931539782	0.7805921392609705	-0.494800009	
W 0.7447999371539783	0.2805921259968033	-0.505469984	
W 0.255469984	0.7194078740031967	-0.505199991	
W 0.7552000171539782	0.21940788943107306	-1.0054699999999999	
W 0.24453	0.7805921392609705	-1.005200024	
O 0.261089982	0.007979125389460351	-0.988969991	
O 0.7389699841539783	0.9920208786251361	-0.988910018	
O 0.238910002	0.49202089188930326	-0.488969991	
O 0.7610300341539783	0.5079791213748639	-0.488910002	
O 0.7389100111539783	0.007979125389460351	-0.5110300249999999	
O 0.261030025	0.9920208786251361	-0.511089982	
O 0.7610899421539783	0.49202089188930326	-1.0110300410000002	
O 0.238969991	0.5079791213748639	-1.011089949	
O 0.497689964	0.26323997	-0.5474408119788279	
O 0.501510038	0.7406300474181454	-0.4525591579012522	
O 0.002309978	0.23676	-1.0474408119788279	
O 0.998489995	0.7593699654181455	-0.9525591680017101	
O 0.502309971	0.26323997	-0.9525591680017101	
O 0.498489995	0.7406300474181454	-1.0474408119788279	
O 0.997690029	0.23676	-0.4525591579012522	
O 0.001509994	0.7593699654181455	-0.5474408119788279	
O 0.702559148747274	0.240629995	-0.25151000084602176	
O 0.2974408051328061	0.7367600364181455	-0.752309971	
O 0.7974408329447695	0.25936999	-0.751510038	
O 0.2025591720211721	0.7632399764181454	-0.25230998484602174	
O 0.2974408051328061	0.240629995	-1.2484900018460217	
O 0.702559148747274	0.7367600364181455	-0.747689964	
O 0.2025591720211721	0.25936999	-0.748489995	
O 0.7974408329447695	0.7632399764181454	-1.247690035846022	

K_POINTS automatic
6 6 6 0 0 0
