&CONTROL
    calculation   = 'scf'
    restart_mode  = 'from_scratch'
    prefix        = 'Landau_32'
    pseudo_dir    = '/cluster/scratch/mnoe/QE/pps'
    outdir        = './'
/
&SYSTEM
    ibrav       = 0
    nat         = 32
    ntyp        = 2
    ecutwfc     = 120
    occupations = 'smearing'
    degauss     = 7.35d-4
    tot_charge  = -0.52
/
&ELECTRONS
    conv_thr    = 1.0d-8
    diagonalization = 'david'
/

CELL_PARAMETERS angstrom
   7.457550366   0.000000000   0.000000000
   0.000000000   7.548400411   0.000000000
   0.000000000   0.000000000   7.430229825

ATOMIC_SPECIES
W 183.84 W_ONCV_LDA-4.0.upf
O 15.9994 O_ONCV_LDA-3.0.upf

ATOMIC_POSITIONS crystal
W        0.2352	0.29272719148000004	0.013980001	
W        0.7648	0.70727280852	0.98602002	
W        0.264800016	0.20727280912	0.51397998	
W        0.7352	0.79272716048	0.486019987	
W       0.7648	0.29272719148000004	0.486019987	
W       0.2352	0.70727280852	0.51397998	
W       0.7352	0.20727280912	0.98602002	
W       0.264800016	0.79272716048	0.013980001	
O        0.222699997	0.02888320096	0.00435	
O        0.777299987	0.97111684796	0.995650004	
O        0.277299987	0.47111678720000005	0.504349996	
O        0.722700013	0.5288832115600001	0.495650004	
O        0.777299987	0.02888320096	0.495650004	
O        0.222699997	0.97111684796	0.504349996	
O        0.722700013	0.47111678720000005	0.995650004	
O        0.277299987	0.5288832115600001	0.00435	
O    0.504050025	0.221990001	0.5057096424	
O    0.495949975	0.778010015	0.49429038699999994	
O    0.995949975	0.278010015	1.00570962932	
O    0.004050016	0.721990016	-0.005709584160000003	
O   0.495949975	0.221990001	-0.005709584160000003	
O   0.504050025	0.778010015	1.00570962932	
O   0.004050016	0.278010015	0.49429038699999994	
O   0.995949975	0.721990016	0.5057096424	
O   0.75570970708	0.243880005	0.743860013	
O   0.24429040368000002	0.756119995	0.256139987	
O   0.74429035532	0.256119995	0.243860013	
O   0.25570965936	0.743880036	0.756139987	
O   0.24429040368000002	0.243880005	0.756139987	
O   0.75570970708	0.756119995	0.243860013	
O   0.25570965936	0.256119995	0.256139987	
O   0.74429035532	0.743880036	0.743860013	

K_POINTS automatic
6 6 6 0 0 0
