
&CONTROL
    calculation   = 'vc-relax'
    restart_mode  = 'from_scratch'
    prefix        = 'Landau_16'
    pseudo_dir    = '/cluster/scratch/mnoe/QE/pps'
    outdir        = './'
    forc_conv_thr = 1.0d-7
    etot_conv_thr = 1.0d-7

/
&SYSTEM
    ibrav       = 0
    nat         = 32
    ntyp        = 2
    ecutwfc     = 120
    occupations = 'smearing'
    degauss     = 7.35d-4
    tot_charge  = -0.0
/
&ELECTRONS
    conv_thr    = 1.0d-8
    diagonalization = 'david'
/


&IONS
ion_dynamics = 'bfgs'
/

&CELL
cell_dynamics = 'bfgs'
cell_dofree = 'all'
/
CELL_PARAMETERS angstrom
        7.3236460686         0.0000000000         0.0000000000
        0.0000000000         7.7495899200         0.0000000000
        0.0000000000         0.0000000000         7.3236460686

ATOMIC_SPECIES
W 183.84 W_ONCV_LDA-4.0.upf
O 15.9994 O_ONCV_LDA-3.0.upf

ATOMIC_POSITIONS crystal
W 0.25	0.2796296571743334	0.0	 0 0 0
W 0.7499999881442505	0.7203703428256666	0.0	 0 0 0
W 0.25	0.2203703585666509	0.5	 0 0 0
W 0.7499999881442505	0.779629649144848	0.5	 0 0 0
W 0.7499999881442505	0.2796296571743334	0.5	 0 0 0
W 0.25	0.7203703428256666	0.5	 0 0 0
W 0.7499999881442505	0.2203703585666509	0.0	 0 0 0
W 0.25	0.779629649144848	0.0	 0 0 0
O 0.25	0.007712387652972975	0.0	 0 0 0
O 0.7499999881442505	0.9922876197863558	0.0	 0 0 0
O 0.25	0.49228761175687047	0.5	 0 0 0
O 0.7499999881442505	0.5077123802136442	0.5	 0 0 0
O 0.7499999881442505	0.007712387652972975	0.5	 0 0 0
O 0.25	0.9922876197863558	0.5	 0 0 0
O 0.7499999881442505	0.49228761175687047	0.0	 0 0 0
O 0.25	0.5077123802136442	0.0	 0 0 0
O 0.5	0.25	0.4549936383806163	 0 0 0
O 0.5	0.7499999961147651	0.545006353071867	 0 0 0
O 0.0	0.25	0.9549936713806163	 0 0 0
O 0.0	0.7499999961147651	0.04500635687182212	 0 0 0
O 0.5	0.25	0.04500635687182212	 0 0 0
O 0.5	0.7499999961147651	0.9549936713806163	 0 0 0
O 0.0	0.25	0.545006353071867	 0 0 0
O 0.0	0.7499999961147651	0.4549936383806163	 0 0 0
O 0.7049936587838825	0.25	0.7499999881442505	 0 0 0
O 0.2950063497636342	0.7499999961147651	0.25	 0 0 0
O 0.7950063649276164	0.25	0.25	 0 0 0
O 0.2049936543806163	0.7499999961147651	0.7499999881442505	 0 0 0
O 0.2950063497636342	0.25	0.7499999881442505	 0 0 0
O 0.7049936587838825	0.7499999961147651	0.25	 0 0 0
O 0.2049936543806163	0.25	0.25	 0 0 0
O 0.7950063649276164	0.7499999961147651	0.7499999881442505	 0 0 0

K_POINTS automatic
6 6 6 0 0 0
