
&CONTROL
    calculation   = 'vc-relax'
    restart_mode  = 'from_scratch'
    prefix        = 'Landau_33'
    pseudo_dir    = '/cluster/scratch/mnoe/QE/pps'
    outdir        = './'
    forc_conv_thr = 1.0d-7
    etot_conv_thr = 1.0d-7

/
&SYSTEM
    ibrav       = 0
    nat         = 32
    ntyp        = 2
    ecutwfc     = 120
    occupations = 'smearing'
    degauss     = 7.35d-4
    tot_charge  = -0.0
/
&ELECTRONS
    conv_thr    = 1.0d-8
    diagonalization = 'david'
/


&IONS
ion_dynamics = 'bfgs'
/

&CELL
cell_dynamics = 'bfgs'
cell_dofree = 'all'
/
CELL_PARAMETERS angstrom
        7.3236460686         0.0000000000         0.0000000000
        0.0000000000         7.7495899200         0.0000000000
        0.0000000000         0.0000000000         7.3236460686

ATOMIC_SPECIES
W 183.84 W_ONCV_LDA-4.0.upf
O 15.9994 O_ONCV_LDA-3.0.upf

ATOMIC_POSITIONS crystal
W 0.234740001	0.2785791940113218	0.014410001	 0 0 0
W 0.7652599325603505	0.7214208059886782	0.985589955	 0 0 0
W 0.265259983	0.22142082207865624	0.514410012	 0 0 0
W 0.7347400325603505	0.7785791968006427	0.485590021	 0 0 0
W 0.7652599325603505	0.2785791940113218	0.485590021	 0 0 0
W 0.234740001	0.7214208059886782	0.514410012	 0 0 0
W 0.7347400325603505	0.22142082207865624	0.985589955	 0 0 0
W 0.265259983	0.7785791968006427	0.014410001	 0 0 0
O 0.221849994	0.007426210334371654	0.00448	 0 0 0
O 0.7781500055603505	0.9925737897760885	0.995519976	 0 0 0
O 0.278150023	0.4925737925654093	0.504479992	 0 0 0
O 0.7218499595603505	0.5074262102239115	0.495520008	 0 0 0
O 0.7781500055603505	0.007426210334371654	0.495520008	 0 0 0
O 0.221849994	0.9925737897760885	0.504479992	 0 0 0
O 0.7218499595603505	0.4925737925654093	0.995519976	 0 0 0
O 0.278150023	0.5074262102239115	0.00448	 0 0 0
O 0.504169994	0.221119994	0.45756222750049363	 0 0 0
O 0.495830006	0.7788800373496714	0.5424377754687834	 0 0 0
O 0.995829974	0.27887999	0.9575622605004936	 0 0 0
O 0.004169941	0.7211200263496714	0.042437757980119756	 0 0 0
O 0.495830006	0.221119994	0.042437757980119756	 0 0 0
O 0.504169994	0.7788800373496714	0.9575622605004936	 0 0 0
O 0.004169941	0.27887999	0.5424377754687834	 0 0 0
O 0.995829974	0.7211200263496714	0.45756222750049363	 0 0 0
O 0.7075622419708661	0.243689993	0.7436699995603505	 0 0 0
O 0.2924377550598568	0.7563100233496713	0.256330016	 0 0 0
O 0.7924377929084329	0.256309991	0.243669984	 0 0 0
O 0.20756224350049365	0.7436900403496713	0.7563299655603505	 0 0 0
O 0.2924377550598568	0.243689993	0.7563299655603505	 0 0 0
O 0.7075622419708661	0.7563100233496713	0.243669984	 0 0 0
O 0.20756224350049365	0.256309991	0.256330016	 0 0 0
O 0.7924377929084329	0.7436900403496713	0.7436699995603505	 0 0 0

K_POINTS automatic
6 6 6 0 0 0
