
&CONTROL
    calculation   = 'vc-relax'
    restart_mode  = 'from_scratch'
    prefix        = 'Landau_33'
    pseudo_dir    = '/cluster/scratch/mnoe/QE/pps'
    outdir        = './'
    forc_conv_thr = 1.0d-7
    etot_conv_thr = 1.0d-7

/
&SYSTEM
    ibrav       = 0
    nat         = 32
    ntyp        = 2
    ecutwfc     = 120
    occupations = 'smearing'
    degauss     = 7.35d-4
    tot_charge  = -0.0
/
&ELECTRONS
    conv_thr    = 1.0d-8
    diagonalization = 'david'
/


&IONS
ion_dynamics = 'bfgs'
/

&CELL
cell_dynamics = 'bfgs'
cell_dofree = 'all'
/
CELL_PARAMETERS angstrom
        7.3236460686         0.0000000000         0.0000000000
        0.0000000000         7.7495899200         0.0000000000
        0.0000000000         0.0000000000         7.3236460686

ATOMIC_SPECIES
W 183.84 W_ONCV_LDA-4.0.upf
O 15.9994 O_ONCV_LDA-3.0.upf

ATOMIC_POSITIONS crystal
W 0.234740001	0.28484661203398004	0.014410001	 0 0 0
W 0.76525995	0.71515338796602	0.985589955	 0 0 0
W 0.265259983	0.215153399008495	0.514410012	 0 0 0
W 0.73474005	0.78484658103398	0.485590021	 0 0 0
W 0.76525995	0.28484661203398004	0.485590021	 0 0 0
W 0.234740001	0.71515338796602	0.514410012	 0 0 0
W 0.73474005	0.215153399008495	0.985589955	 0 0 0
W 0.265259983	0.78484658103398	0.014410001	 0 0 0
O 0.221849994	0.013971345963835	0.00448	 0 0 0
O 0.778150023	0.98602868415971	0.995519976	 0 0 0
O 0.278150023	0.48602864498082504	0.504479992	 0 0 0
O 0.721849977	0.51397133219806	0.495520008	 0 0 0
O 0.778150023	0.013971345963835	0.495520008	 0 0 0
O 0.221849994	0.98602868415971	0.504479992	 0 0 0
O 0.721849977	0.48602864498082504	0.995519976	 0 0 0
O 0.278150023	0.51397133219806	0.00448	 0 0 0
O 0.504169994	0.221119994	0.4649770004034	 0 0 0
O 0.495830006	0.778880021	0.535022983745875	 0 0 0
O 0.995829974	0.27887999	0.96497702073932	 0 0 0
O 0.004169941	0.72112001	0.03502302720534	 0 0 0
O 0.495830006	0.221119994	0.03502302720534	 0 0 0
O 0.504169994	0.778880021	0.96497702073932	 0 0 0
O 0.004169941	0.27887999	0.535022983745875	 0 0 0
O 0.995829974	0.72112001	0.4649770004034	 0 0 0
O 0.714977042109955	0.243689993	0.743670017	 0 0 0
O 0.28502301226068	0.756310007	0.256330016	 0 0 0
O 0.78502297503932	0.256309991	0.243669984	 0 0 0
O 0.214977016667235	0.743690024	0.756329983	 0 0 0
O 0.28502301226068	0.243689993	0.756329983	 0 0 0
O 0.714977042109955	0.756310007	0.243669984	 0 0 0
O 0.214977016667235	0.256309991	0.256330016	 0 0 0
O 0.78502297503932	0.743690024	0.743670017	 0 0 0

K_POINTS automatic
6 6 6 0 0 0
