
&CONTROL
    calculation   = 'vc-relax'
    restart_mode  = 'from_scratch'
    prefix        = 'Landau_24'
    pseudo_dir    = '/cluster/scratch/mnoe/QE/pps'
    outdir        = './'
    forc_conv_thr = 1.0d-7
    etot_conv_thr = 1.0d-7

/
&SYSTEM
    ibrav       = 0
    nat         = 32
    ntyp        = 2
    ecutwfc     = 120
    occupations = 'smearing'
    degauss     = 7.35d-4
    tot_charge  = -0.0
/
&ELECTRONS
    conv_thr    = 1.0d-8
    diagonalization = 'david'
/


&IONS
ion_dynamics = 'bfgs'
/

&CELL
cell_dynamics = 'bfgs'
cell_dofree = 'all'
/
CELL_PARAMETERS angstrom
        7.3236460686         0.0000000000         0.0000000000
        0.0000000000         7.3236460686         0.0000000000
        0.0000000000         0.0000000000         7.7495899200

ATOMIC_SPECIES
W 183.84 W_ONCV_LDA-4.0.upf
O 15.9994 O_ONCV_LDA-3.0.upf

ATOMIC_POSITIONS crystal
W 0.239590006         0.239050004         0.218119991 0 0 0
W 0.760409994         0.760949947         0.218119991 0 0 0
W 0.239050004         0.760409994         0.781880024 0 0 0
W 0.760949947         0.239590006         0.781880024 0 0 0
W 0.260410010         0.739050021         0.281880024 0 0 0
W 0.739589973         0.260949996         0.281880024 0 0 0
W 0.260949996         0.260410010         0.718119976 0 0 0
W 0.739050021         0.739589973         0.718119976 0 0 0
O 0.227819988         0.227929987         0.491670026 0 0 0
O 0.772180012         0.772069964         0.491670026 0 0 0
O 0.227929987         0.772180012         0.508329974 0 0 0
O 0.772069964         0.227819988         0.508329974 0 0 0
O 0.272180028         0.727930004         0.008329987 0 0 0
O 0.727819955         0.272069996         0.008329987 0 0 0
O 0.272069996         0.272180028         0.991670026 0 0 0
O 0.727930004         0.727819955         0.991670026 0 0 0
O 0.199410008         0.496969994         0.268750009 0 0 0
O 0.800589976         0.503030006         0.268750009 0 0 0
O 0.496969994         0.800589976         0.731249991 0 0 0
O 0.503030006         0.199410008         0.731249991 0 0 0
O 0.300589976         0.996970027         0.231249991 0 0 0
O 0.699409992         0.003030002         0.231249991 0 0 0
O 0.003030002         0.300589976         0.768750009 0 0 0
O 0.996970027         0.699409992         0.768750009 0 0 0
O 0.995379992         0.199410008         0.223510000 0 0 0
O 0.004620016         0.800589976         0.223510000 0 0 0
O 0.199410008         0.004620016         0.776489969 0 0 0
O 0.800589976         0.995379992         0.776489969 0 0 0
O 0.504620008         0.699409992         0.276490000 0 0 0
O 0.495379927         0.300589976         0.276490000 0 0 0
O 0.300589976         0.504620008         0.723510031 0 0 0
O 0.699409992         0.495379927         0.723510031 0 0 0

K_POINTS automatic
6 6 6 0 0 0
