
&CONTROL
    calculation   = 'vc-relax'
    restart_mode  = 'from_scratch'
    prefix        = 'Landau_25'
    pseudo_dir    = '/cluster/scratch/mnoe/QE/pps'
    outdir        = './'
    forc_conv_thr = 1.0d-7
    etot_conv_thr = 1.0d-7

/
&SYSTEM
    ibrav       = 0
    nat         = 32
    ntyp        = 2
    ecutwfc     = 120
    occupations = 'smearing'
    degauss     = 7.35d-4
    tot_charge  = -0.0
/
&ELECTRONS
    conv_thr    = 1.0d-8
    diagonalization = 'david'
/


&IONS
ion_dynamics = 'bfgs'
/

&CELL
cell_dynamics = 'bfgs'
cell_dofree = 'all'
/
CELL_PARAMETERS angstrom
        7.3236460686         0.0000000000         0.0000000000
        0.0000000000         7.7495899200         0.0000000000
        0.0000000000         0.0000000000         7.3236460686

ATOMIC_SPECIES
W 183.84 W_ONCV_LDA-4.0.upf
O 15.9994 O_ONCV_LDA-3.0.upf

ATOMIC_POSITIONS crystal
W 0.260839996	0.26799569451459787	-0.988599995	 0 0 0
W 0.7385999211956913	0.7320043054854022	-0.989160004	 0 0 0
W 0.239160004	0.23200432509817118	-0.488599995	 0 0 0
W 0.7613998991956913	0.7679958375104461	-0.48916000400000004	 0 0 0
W 0.7391599301956914	0.26799569451459787	-0.511399989	 0 0 0
W 0.261399989	0.7320043054854022	-0.5108399960000001	 0 0 0
W 0.7608399551956914	0.23200432509817118	-1.011399973	 0 0 0
W 0.238599995	0.7679958375104461	-1.0108400290000001	 0 0 0
O 0.273100022	0.0045474838884028215	-0.977010026	 0 0 0
O 0.7270099521956913	0.9954524322434419	-0.976899978	 0 0 0
O 0.226899994	0.49545257523929015	-0.477009994	 0 0 0
O 0.7729899321956913	0.5045475677565581	-0.476899994	 0 0 0
O 0.7268999041956913	0.0045474838884028215	-0.52298999	 0 0 0
O 0.27298999	0.9954524322434419	-0.5231000219999999	 0 0 0
O 0.7730999151956913	0.49545257523929015	-1.0229900060000001	 0 0 0
O 0.227009994	0.5045475677565581	-1.0230999889999999	 0 0 0
O 0.495190013	0.277590008	-0.5166400585647687	 0 0 0
O 0.503149984	0.7304700401915395	-0.48335977321384466	 0 0 0
O 0.004809976	0.222409992	-1.0166400585647688	 0 0 0
O 0.996850016	0.7695300981915395	-0.9833600385927715	 0 0 0
O 0.504809987	0.277590008	-0.9833600385927715	 0 0 0
O 0.496850016	0.7304700401915395	-1.0166400585647688	 0 0 0
O 0.995190045	0.222409992	-0.48335977321384466	 0 0 0
O 0.003149986	0.7695300981915395	-0.5166400585647687	 0 0 0
O 0.7333598310181534	0.230470002	-0.25315005980430866	 0 0 0
O 0.2666399847604598	0.7224100611915395	-0.754809987	 0 0 0
O 0.7666402845904641	0.269529998	-0.753149984	 0 0 0
O 0.2333599254352312	0.7775900771915395	-0.25481004980430866	 0 0 0
O 0.2666399847604598	0.230470002	-1.2468500898043087	 0 0 0
O 0.7333598310181534	0.7224100611915395	-0.745190013	 0 0 0
O 0.2333599254352312	0.269529998	-0.746850016	 0 0 0
O 0.7666402845904641	0.7775900771915395	-1.2451901188043086	 0 0 0

K_POINTS automatic
6 6 6 0 0 0
