&CONTROL
    calculation   = 'scf'
    restart_mode  = 'from_scratch'
    prefix        = 'chempot_1'
    pseudo_dir    = '/cluster/scratch/mnoe/QE/pps'
    outdir        = './'
/
&SYSTEM
    ibrav       = 0
    nat         = 32 
    ntyp        = 2
    ecutwfc     = 120
    occupations = 'smearing'
    degauss     = 7.35d-4
    tot_charge  = -.10
/
&ELECTRONS
    conv_thr    = 1.0d-8
    diagonalization = 'david'
/
CELL_PARAMETERS angstrom
   7.449408491   0.000000000   0.000000000
   0.000000000   7.583751369   0.000000000
   0.000000000   0.000000000   7.437049247


ATOMIC_SPECIES
W 183.84 W_ONCV_LDA-4.0.upf
O 15.9994 O_ONCV_LDA-3.0.upf

ATOMIC_POSITIONS crystal
W 0.243990009	0.29102919328000004	0.00568	
W 0.756010024	0.70897080672	0.994319964	
W 0.256009991	0.20897080957	0.505680036	
W 0.743989976	0.79102916228	0.494319996	
W 0.756010024	0.29102919328000004	0.494319996	
W 0.243990009	0.70897080672	0.505680036	
W 0.743989976	0.20897080957	0.994319964	
W 0.256009991	0.79102916228	0.00568	
O 0.238910011	0.025670200810000002	0.00177	
O 0.761089989	0.97432984406	0.998229998	
O 0.261089973	0.47432978795	0.501770034	
O 0.738910011	0.52567020616	0.498229998	
O 0.761089989	0.025670200810000002	0.498229998	
O 0.238910011	0.97432984406	0.501770034	
O 0.738910011	0.47432978795	0.998229998	
O 0.261089973	0.52567020616	0.00177	
O 0.501640006	0.238620002	0.49693313640000003	
O 0.498359994	0.761380028	0.5030668832499999	
O 0.998359961	0.261380028	0.99693313052	
O 0.001640081	0.738620002	0.0030669152400000024	
O 0.498359994	0.238620002	0.0030669152400000024	
O 0.501640006	0.761380028	0.99693313052	
O 0.001640081	0.261380028	0.5030668832499999	
O 0.998359961	0.738620002	0.49693313640000003	
O 0.74693319613	0.247519999	0.747509991	
O 0.25306690248	0.752480047	0.252489977	
O 0.7530668565199999	0.252480001	0.247509958	
O 0.24693315321	0.747519984	0.752490009	
O 0.25306690248	0.247519999	0.752490009	
O 0.74693319613	0.752480047	0.247509958	
O 0.24693315321	0.252480001	0.252489977	
O 0.7530668565199999	0.747519984	0.747509991	

K_POINTS automatic
6 6 6 0 0 0
