
&CONTROL
    calculation   = 'vc-relax'
    restart_mode  = 'from_scratch'
    prefix        = 'Landau_23'
    pseudo_dir    = '/cluster/scratch/mnoe/QE/pps'
    outdir        = './'
    forc_conv_thr = 1.0d-7
    etot_conv_thr = 1.0d-7

/
&SYSTEM
    ibrav       = 0
    nat         = 32
    ntyp        = 2
    ecutwfc     = 120
    occupations = 'smearing'
    degauss     = 7.35d-4
    tot_charge  = -0.0
/
&ELECTRONS
    conv_thr    = 1.0d-8
    diagonalization = 'david'
/


&IONS
ion_dynamics = 'bfgs'
/

&CELL
cell_dynamics = 'bfgs'
cell_dofree = 'all'
/
CELL_PARAMETERS angstrom
        7.3236460686         0.0000000000         0.0000000000
        0.0000000000         7.7495899200         0.0000000000
        0.0000000000         0.0000000000         7.3236460686

ATOMIC_SPECIES
W 183.84 W_ONCV_LDA-4.0.upf
O 15.9994 O_ONCV_LDA-3.0.upf

ATOMIC_POSITIONS crystal
W 0.23936	0.28394157899338	0.01005	 0 0 0
W 0.76064	0.71605842100662	0.989949978	 0 0 0
W 0.26064	0.216058433248345	0.510049989	 0 0 0
W 0.73936	0.78394154799338	0.489950011	 0 0 0
W 0.76064	0.28394157899338	0.489950011	 0 0 0
W 0.23936	0.71605842100662	0.510049989	 0 0 0
W 0.73936	0.216058433248345	0.989949978	 0 0 0
W 0.26064	0.78394154799338	0.01005	 0 0 0
O 0.230379994	0.012258816883884999	0.00312	 0 0 0
O 0.769619973	0.98774121108101	0.996879968	 0 0 0
O 0.269620006	0.487741174380575	0.503119999	 0 0 0
O 0.730380027	0.51225880031986	0.496880001	 0 0 0
O 0.769619973	0.012258816883884999	0.496880001	 0 0 0
O 0.230379994	0.98774121108101	0.503119999	 0 0 0
O 0.730380027	0.487741174380575	0.996879968	 0 0 0
O 0.269620006	0.51225880031986	0.00312	 0 0 0
O 0.502910014	0.229870006	0.4602991227054	 0 0 0
O 0.497089986	0.770129994	0.5397008562471249	 0 0 0
O 0.997089954	0.270129994	0.96029914687892	 0 0 0
O 0.002910018	0.729870037	0.03970090138554	 0 0 0
O 0.497089986	0.229870006	0.03970090138554	 0 0 0
O 0.502910014	0.770129994	0.96029914687892	 0 0 0
O 0.002910018	0.270129994	0.5397008562471249	 0 0 0
O 0.997089954	0.729870037	0.4602991227054	 0 0 0
O 0.710299161773605	0.245600004	0.745589971	 0 0 0
O 0.28970088612108	0.754400042	0.254410029	 0 0 0
O 0.78970085017892	0.254400011	0.245589971	 0 0 0
O 0.210299138889285	0.745599989	0.754410029	 0 0 0
O 0.28970088612108	0.245600004	0.754410029	 0 0 0
O 0.710299161773605	0.754400042	0.245589971	 0 0 0
O 0.210299138889285	0.254400011	0.254410029	 0 0 0
O 0.78970085017892	0.745599989	0.745589971	 0 0 0

K_POINTS automatic
6 6 6 0 0 0
