
&CONTROL
    calculation   = 'vc-relax'
    restart_mode  = 'from_scratch'
    prefix        = 'Landau_23'
    pseudo_dir    = '/cluster/scratch/mnoe/QE/pps'
    outdir        = './'
    forc_conv_thr = 1.0d-7
    etot_conv_thr = 1.0d-7

/
&SYSTEM
    ibrav       = 0
    nat         = 32
    ntyp        = 2
    ecutwfc     = 120
    occupations = 'smearing'
    degauss     = 7.35d-4
    tot_charge  = -0.0
/
&ELECTRONS
    conv_thr    = 1.0d-8
    diagonalization = 'david'
/


&IONS
ion_dynamics = 'bfgs'
/

&CELL
cell_dynamics = 'bfgs'
cell_dofree = 'all'
/
CELL_PARAMETERS angstrom
        7.3236460686         0.0000000000         0.0000000000
        0.0000000000         7.7495899200         0.0000000000
        0.0000000000         0.0000000000         7.3236460686

ATOMIC_SPECIES
W 183.84 W_ONCV_LDA-4.0.upf
O 15.9994 O_ONCV_LDA-3.0.upf

ATOMIC_POSITIONS crystal
W 0.23936	0.2795733785533455	0.01005	 0 0 0
W 0.7606399878450928	0.7204266214466545	0.989949978	 0 0 0
W 0.26064	0.22042663720633618	0.510049989	 0 0 0
W 0.7393599878450928	0.7795733711034782	0.489950011	 0 0 0
W 0.7606399878450928	0.2795733785533455	0.489950011	 0 0 0
W 0.23936	0.7204266214466545	0.510049989	 0 0 0
W 0.7393599878450928	0.22042663720633618	0.989949978	 0 0 0
W 0.26064	0.7795733711034782	0.01005	 0 0 0
O 0.230379994	0.0076970556875923645	0.00312	 0 0 0
O 0.7696199608450928	0.992302951359092	0.996879968	 0 0 0
O 0.269620006	0.49230294390922463	0.503119999	 0 0 0
O 0.7303800148450929	0.507697048640908	0.496880001	 0 0 0
O 0.7696199608450928	0.0076970556875923645	0.496880001	 0 0 0
O 0.230379994	0.992302951359092	0.503119999	 0 0 0
O 0.7303800148450929	0.49230294390922463	0.996879968	 0 0 0
O 0.269620006	0.507697048640908	0.00312	 0 0 0
O 0.502910014	0.229870006	0.45513125068216226	 0 0 0
O 0.497089986	0.7701300053952256	0.5448687413873339	 0 0 0
O 0.997089954	0.270129994	0.9551312836821623	 0 0 0
O 0.002910018	0.7298700483952255	0.04486874404675013	 0 0 0
O 0.497089986	0.229870006	0.04486874404675013	 0 0 0
O 0.502910014	0.7701300053952256	0.9551312836821623	 0 0 0
O 0.002910018	0.270129994	0.5448687413873339	 0 0 0
O 0.997089954	0.7298700483952255	0.45513125068216226	 0 0 0
O 0.7051312707675733	0.245600004	0.7455899588450928	 0 0 0
O 0.2948687371629305	0.7544000533952255	0.254410029	 0 0 0
O 0.7948687535422411	0.254400011	0.245589971	 0 0 0
O 0.20513126668216225	0.7456000003952256	0.7544100168450928	 0 0 0
O 0.2948687371629305	0.245600004	0.7544100168450928	 0 0 0
O 0.7051312707675733	0.7544000533952255	0.245589971	 0 0 0
O 0.20513126668216225	0.254400011	0.254410029	 0 0 0
O 0.7948687535422411	0.7456000003952256	0.7455899588450928	 0 0 0

K_POINTS automatic
6 6 6 0 0 0
