&CONTROL
    calculation   = 'scf'
    restart_mode  = 'from_scratch'
    prefix        = 'Landau_16'
    pseudo_dir    = '/cluster/scratch/mnoe/QE/pps'
    outdir        = './'
/
&SYSTEM
    ibrav       = 0
    nat         = 32
    ntyp        = 2
    ecutwfc     = 120
    occupations = 'smearing'
    degauss     = 7.35d-4
    tot_charge  = -0.2
/
&ELECTRONS
    conv_thr    = 1.0d-8
    diagonalization = 'david'
/

CELL_PARAMETERS angstrom
   7.490377892  -0.000000015  -0.000000045
  -0.000000011   7.619164459  -0.000000057
  -0.000000045  -0.000000059   7.490378076

ATOMIC_SPECIES
W 183.84 W_ONCV_LDA-4.0.upf
O 15.9994 O_ONCV_LDA-3.0.upf

ATOMIC_POSITIONS crystal
W 0.25	0.2691245722290787	0.0	
W 0.7499999323028408	0.7308754277709213	0.0	
W 0.25	0.23087544700199356	0.5	
W 0.7499999323028408	0.7691246723923248	0.5	
W 0.7499999323028408	0.2691245722290787	0.5	
W 0.25	0.7308754277709213	0.5	
W 0.7499999323028408	0.23087544700199356	0.0	
W 0.25	0.7691246723923248	0.0	
O 0.25	0.0048504909704723	0.0	
O 0.7499999323028408	0.9951494431770062	0.0	
O 0.25	0.4951495433402523	0.5	
O 0.7499999323028408	0.5048505568229938	0.5	
O 0.7499999323028408	0.0048504909704723	0.5	
O 0.25	0.9951494431770062	0.5	
O 0.7499999323028408	0.4951495433402523	0.0	
O 0.25	0.5048505568229938	0.0	
O 0.5	0.25	0.48068063802409666	
O 0.5	0.7500000484660869	0.5193194686012941	
O 0.0	0.25	0.9806806710240966	
O 0.0	0.7500000484660869	0.019319259505874584	
O 0.5	0.25	0.019319259505874584	
O 0.5	0.7500000484660869	0.9806806710240966	
O 0.0	0.25	0.5193194686012941	
O 0.0	0.7500000484660869	0.48068063802409666	
O 0.7306805990958651	0.25	0.7499999323028408	
O 0.2693192942787439	0.7500000484660869	0.25	
O 0.7693195362984533	0.25	0.25	
O 0.23068065402409665	0.7500000484660869	0.7499999323028408	
O 0.2693192942787439	0.25	0.7499999323028408	
O 0.7306805990958651	0.7500000484660869	0.25	
O 0.23068065402409665	0.25	0.25	
O 0.7693195362984533	0.7500000484660869	0.7499999323028408	

K_POINTS automatic
6 6 6 0 0 0
