
&CONTROL
    calculation   = 'vc-relax'
    restart_mode  = 'from_scratch'
    prefix        = 'Landau_19'
    pseudo_dir    = '/cluster/scratch/mnoe/QE/pps'
    outdir        = './'
    forc_conv_thr = 1.0d-7
    etot_conv_thr = 1.0d-7

/
&SYSTEM
    ibrav       = 0
    nat         = 32
    ntyp        = 2
    ecutwfc     = 120
    occupations = 'smearing'
    degauss     = 7.35d-4
    tot_charge  = -0.0
/
&ELECTRONS
    conv_thr    = 1.0d-8
    diagonalization = 'david'
/


&IONS
ion_dynamics = 'bfgs'
/

&CELL
cell_dynamics = 'bfgs'
cell_dofree = 'all'
/
CELL_PARAMETERS angstrom
        7.3236460686         0.0000000000         0.0000000000
        0.0000000000         7.7495899200         0.0000000000
        0.0000000000         0.0000000000         7.3236460686

ATOMIC_SPECIES
W 183.84 W_ONCV_LDA-4.0.upf
O 15.9994 O_ONCV_LDA-3.0.upf

ATOMIC_POSITIONS crystal
W 0.258239993	0.27132793359109436	-0.991330038	 0 0 0
W 0.7413299819087253	0.7286720664089056	-0.991760007	 0 0 0
W 0.241760007	0.2286720849146101	-0.491330005	 0 0 0
W 0.7586699389087254	0.771328042267939	-0.491760007	 0 0 0
W 0.7417599509087254	0.27132793359109436	-0.508669995	 0 0 0
W 0.258669995	0.7286720664089056	-0.508239993	 0 0 0
W 0.7582399039087254	0.2286720849146101	-1.008669995	 0 0 0
W 0.241330005	0.771328042267939	-1.00823996	 0 0 0
O 0.267560004	0.0054552846351861445	-0.98253002	 0 0 0
O 0.7325299639087254	0.9945446547450159	-0.982439963	 0 0 0
O 0.232439996	0.4945447634218605	-0.482530004	 0 0 0
O 0.7674699559087254	0.5054553452549841	-0.482439996	 0 0 0
O 0.7324399069087254	0.0054552846351861445	-0.517469996	 0 0 0
O 0.267469996	0.9945446547450159	-0.517560004	 0 0 0
O 0.7675599479087254	0.4945447634218605	-1.017470012	 0 0 0
O 0.232530004	0.5054553452549841	-1.017560004	 0 0 0
O 0.496340049	0.270969992	-0.5247880387492242	 0 0 0
O 0.502400028	0.73516004858557	-0.47521182956252195	 0 0 0
O 0.003660023	0.229029992	-1.0247880387492243	 0 0 0
O 0.997599972	0.76484005658557	-0.9752120274105064	 0 0 0
O 0.503660016	0.270969992	-0.9752120274105064	 0 0 0
O 0.497600004	0.73516004858557	-1.0247880387492243	 0 0 0
O 0.996339952	0.229029992	-0.47521182956252195	 0 0 0
O 0.002400011	0.76484005658557	-0.5247880387492242	 0 0 0
O 0.7252118696537966	0.235159996	-0.2524000670912746	 0 0 0
O 0.27478798265794946	0.72903009158557	-0.753660016	 0 0 0
O 0.7747882105287527	0.264840004	-0.752400028	 0 0 0
O 0.22521194525077573	0.77097001358557	-0.25366007909127464	 0 0 0
O 0.27478798265794946	0.235159996	-1.2476000280912745	 0 0 0
O 0.7252118696537966	0.72903009158557	-0.7463400490000001	 0 0 0
O 0.22521194525077573	0.264840004	-0.7476000039999999	 0 0 0
O 0.7747882105287527	0.77097001358557	-1.2463400080912745	 0 0 0

K_POINTS automatic
6 6 6 0 0 0
