&CONTROL
    calculation   = 'scf'
    restart_mode  = 'from_scratch'
    prefix        = 'Landau_24'
    pseudo_dir    = '/cluster/scratch/mnoe/QE/pps'
    outdir        = './'
/
&SYSTEM
    ibrav       = 0
    nat         = 16
    ntyp        = 2
    ecutwfc     = 120
    occupations = 'smearing'
    degauss     = 7.35d-4
    tot_charge  = -0.18
/
&ELECTRONS
    conv_thr    = 1.0d-8
    diagonalization = 'david'
/

CELL_PARAMETERS angstrom
   5.253066263   0.000000000   0.000000000
   0.000000000   5.253066263   0.000000000
   0.000000000   0.000000000   7.651614428

ATOMIC_SPECIES
W 183.84 W_ONCV_LDA-4.0.upf
O 15.9994 O_ONCV_LDA-3.0.upf

ATOMIC_POSITIONS crystal
      0.24999999999993885	0.2499999999998911	0.20997207993138586	
      0.7500000229999464	0.7500000229999798	0.7900279350662939	
      0.7500000230000179	0.7500000230000464	0.2900279350686128	
      0.24999999999992767	0.2500000000000344	0.7099720649337062	
     0.24999999999974032	0.24999999999991773	0.47625081969756505	
     0.7500000229999928	0.7500000230003097	0.5237491803060019	
     0.750000022999877	0.7500000230000181	0.023749193302439818	
     0.24999999999977782	0.2500000000000516	0.9762508196939901	
      0.4915398937878079	0.5084600602121229	0.2500000000000402	
      0.5084601062378098	0.49153993976221916	0.7499999999999987	
      0.00846008921244823	0.9915399397874193	0.25000000000000394	
      0.9915398477625406	0.00846012323755551	0.750000000000196	
      0.991539939787574	0.4915398937875383	0.2500000000001507	
      0.008460123237790773	0.5084601062377869	0.7499999999999762	
      0.5084600602123114	0.008460089212359835	0.24999999999988626	
      0.49153993976255717	0.9915398477624942	0.7499999999997553	

K_POINTS automatic
6 6 6 0 0 0
