&CONTROL
    calculation   = 'scf'
    restart_mode  = 'from_scratch'
    prefix        = 'Landau_4'
    pseudo_dir    = '/cluster/scratch/mnoe/QE/pps'
    outdir        = './'
/
&SYSTEM
    ibrav       = 0
    nat         = 32
    ntyp        = 2
    ecutwfc     = 120
    occupations = 'smearing'
    degauss     = 7.35d-4
    tot_charge  = -0.2
/
&ELECTRONS
    conv_thr    = 1.0d-8
    diagonalization = 'david'
/

CELL_PARAMETERS angstrom
   7.356532852   0.000000000   0.000000000
   0.000000000   7.719021161   0.000000000
   0.000000000   0.000000000   7.358730260

ATOMIC_SPECIES
W 183.84 W_ONCV_LDA-4.0.upf
O 15.9994 O_ONCV_LDA-3.0.upf

ATOMIC_POSITIONS crystal
W 0.2463	0.27987905287963316	0.00349	
W 0.7537000384699521	0.7201209471203668	0.996510002	
W 0.253700016	0.2201209627784948	0.503489965	
W 0.7462999404699522	0.779879042281601	0.496510002	
W 0.7537000384699521	0.27987905287963316	0.496510002	
W 0.2463	0.7201209471203668	0.503489965	
W 0.7462999404699522	0.2201209627784948	0.996510002	
W 0.253700016	0.779879042281601	0.00349	
O 0.243180001	0.007780330439285206	0.00109	
O 0.7568199394699522	0.9922196787400269	0.998910027	
O 0.256819999	0.49221966814199475	0.501090006	
O 0.7431800394699521	0.5077803212599731	0.498909994	
O 0.7568199394699522	0.007780330439285206	0.498909994	
O 0.243180001	0.9922196787400269	0.501090006	
O 0.7431800394699521	0.49221966814199475	0.998910027	
O 0.256819999	0.5077803212599731	0.00109	
O 0.501010016	0.243	0.4543838168107285	
O 0.498989984	0.7569999788719199	0.5456161719074952	
O 0.998989984	0.257	0.9543838498107284	
O 0.001009941	0.7430000098719199	0.04561618076168772	
O 0.498989984	0.243	0.04561618076168772	
O 0.501010016	0.7569999788719199	0.9543838498107284	
O 0.001009941	0.257	0.5456161719074952	
O 0.998989984	0.7430000098719199	0.4543838168107285	
O 0.7043838386225526	0.248469997	0.7484699904699522	
O 0.29561617265922363	0.7515299968719199	0.251529999	
O 0.7956161824375431	0.251529987	0.248470066	
O 0.2043838328107285	0.74846999187192	0.7515299884699521	
O 0.29561617265922363	0.248469997	0.7515299884699521	
O 0.7043838386225526	0.7515299968719199	0.248470066	
O 0.2043838328107285	0.251529987	0.251529999	
O 0.7956161824375431	0.74846999187192	0.7484699904699522	

K_POINTS automatic
6 6 6 0 0 0
