
&CONTROL
    calculation   = 'vc-relax'
    restart_mode  = 'from_scratch'
    prefix        = 'Landau_25'
    pseudo_dir    = '/cluster/scratch/mnoe/QE/pps'
    outdir        = './'
    forc_conv_thr = 1.0d-7
    etot_conv_thr = 1.0d-7

/
&SYSTEM
    ibrav       = 0
    nat         = 32
    ntyp        = 2
    ecutwfc     = 120
    occupations = 'smearing'
    degauss     = 7.35d-4
    tot_charge  = -0.0
/
&ELECTRONS
    conv_thr    = 1.0d-8
    diagonalization = 'david'
/


&IONS
ion_dynamics = 'bfgs'
/

&CELL
cell_dynamics = 'bfgs'
cell_dofree = 'all'
/
CELL_PARAMETERS angstrom
        7.3236460686         0.0000000000         0.0000000000
        0.0000000000         7.7495899200         0.0000000000
        0.0000000000         0.0000000000         7.3236460686

ATOMIC_SPECIES
W 183.84 W_ONCV_LDA-4.0.upf
O 15.9994 O_ONCV_LDA-3.0.upf

ATOMIC_POSITIONS crystal
W 0.238440001	0.27937454164494074	0.01092	 0 0 0
W 0.7615599527881444	0.7206254583550592	0.989080018	 0 0 0
W 0.261559999	0.2206254741808002	0.510919982	 0 0 0
W 0.7384400207881444	0.7793745362429111	0.489080018	 0 0 0
W 0.7615599527881444	0.27937454164494074	0.489080018	 0 0 0
W 0.238440001	0.7206254583550592	0.510919982	 0 0 0
W 0.7384400207881444	0.2206254741808002	0.989080018	 0 0 0
W 0.261559999	0.7793745362429111	0.01092	 0 0 0
O 0.228669993	0.007642886616948222	0.0034	 0 0 0
O 0.7713299937881444	0.9923571190424912	0.996599987	 0 0 0
O 0.271330007	0.4923571136404616	0.503400013	 0 0 0
O 0.7286699797881444	0.5076428809575088	0.496599987	 0 0 0
O 0.7713299937881444	0.007642886616948222	0.496599987	 0 0 0
O 0.228669993	0.9923571190424912	0.503400013	 0 0 0
O 0.7286699797881444	0.4923571136404616	0.996599987	 0 0 0
O 0.271330007	0.5076428809575088	0.0034	 0 0 0
O 0.503160011	0.228119995	0.4556174460458285	 0 0 0
O 0.496839989	0.7718800483861147	0.5443825482036238	 0 0 0
O 0.996839989	0.271880005	0.9556174790458285	 0 0 0
O 0.00316	0.7281200073861147	0.044382546833424054	 0 0 0
O 0.496839989	0.228119995	0.044382546833424054	 0 0 0
O 0.503160011	0.7718800483861147	0.9556174790458285	 0 0 0
O 0.00316	0.271880005	0.5443825482036238	 0 0 0
O 0.996839989	0.7281200073861147	0.4556174460458285	 0 0 0
O 0.7056174650082319	0.245220011	0.7452099647881444	 0 0 0
O 0.2943825407423158	0.7547800163861147	0.254790006	 0 0 0
O 0.7943825614154794	0.254779989	0.245209929	 0 0 0
O 0.20561746204582854	0.7452200393861147	0.7547900087881444	 0 0 0
O 0.2943825407423158	0.245220011	0.7547900087881444	 0 0 0
O 0.7056174650082319	0.7547800163861147	0.245209929	 0 0 0
O 0.20561746204582854	0.254779989	0.254790006	 0 0 0
O 0.7943825614154794	0.7452200393861147	0.7452099647881444	 0 0 0

K_POINTS automatic
6 6 6 0 0 0
