
&CONTROL
    calculation   = 'vc-relax'
    restart_mode  = 'from_scratch'
    prefix        = 'Landau_24'
    pseudo_dir    = '/cluster/scratch/mnoe/QE/pps'
    outdir        = './'
    forc_conv_thr = 1.0d-7
    etot_conv_thr = 1.0d-7

/
&SYSTEM
    ibrav       = 0
    nat         = 32
    ntyp        = 2
    ecutwfc     = 120
    occupations = 'smearing'
    degauss     = 7.35d-4
    tot_charge  = -0.0
/
&ELECTRONS
    conv_thr    = 1.0d-8
    diagonalization = 'david'
/


&IONS
ion_dynamics = 'bfgs'
/

&CELL
cell_dynamics = 'bfgs'
cell_dofree = 'all'
/
CELL_PARAMETERS angstrom
        7.3236460686         0.0000000000         0.0000000000
        0.0000000000         7.7495899200         0.0000000000
        0.0000000000         0.0000000000         7.3236460686

ATOMIC_SPECIES
W 183.84 W_ONCV_LDA-4.0.upf
O 15.9994 O_ONCV_LDA-3.0.upf

ATOMIC_POSITIONS crystal
W 0.2389	0.27829429278333967	0.01048	 0 0 0
W 0.7610999970459138	0.7217057072166603	0.989520045	 0 0 0
W 0.2611	0.22170572340129066	0.510479988	 0 0 0
W 0.7388999650459138	0.7782942985068817	0.489520012	 0 0 0
W 0.7610999970459138	0.27829429278333967	0.489520012	 0 0 0
W 0.2389	0.7217057072166603	0.510479988	 0 0 0
W 0.7388999650459138	0.22170572340129066	0.989520045	 0 0 0
W 0.2611	0.7782942985068817	0.01048	 0 0 0
O 0.229530007	0.007348594790713371	0.00326	 0 0 0
O 0.7704699900459138	0.9926514033320485	0.996739977	 0 0 0
O 0.270469993	0.4926514090555905	0.503260023	 0 0 0
O 0.7295299720459139	0.5073485966679515	0.49674001	 0 0 0
O 0.7704699900459138	0.007348594790713371	0.49674001	 0 0 0
O 0.229530007	0.9926514033320485	0.503260023	 0 0 0
O 0.7295299720459139	0.4926514090555905	0.996739977	 0 0 0
O 0.270469993	0.5073485966679515	0.00326	 0 0 0
O 0.503030015	0.228990001	0.45825886705931124	 0 0 0
O 0.496969985	0.7710099857694558	0.5417411390334914	 0 0 0
O 0.996970018	0.271009968	0.9582589000593112	 0 0 0
O 0.003030062	0.7289900187694558	0.0417411157710379	 0 0 0
O 0.496969985	0.228990001	0.0417411157710379	 0 0 0
O 0.503030015	0.7710099857694558	0.9582589000593112	 0 0 0
O 0.003030062	0.271009968	0.5417411390334914	 0 0 0
O 0.996970018	0.7289900187694558	0.45825886705931124	 0 0 0
O 0.7082588799205948	0.245409992	0.7454000210459139	 0 0 0
O 0.2917411139866025	0.7545900717694558	0.254599993	 0 0 0
O 0.7917411579875776	0.254590008	0.245399958	 0 0 0
O 0.20825888305931128	0.7454099947694558	0.7545999410459138	 0 0 0
O 0.2917411139866025	0.245409992	0.7545999410459138	 0 0 0
O 0.7082588799205948	0.7545900717694558	0.245399958	 0 0 0
O 0.20825888305931128	0.254590008	0.254599993	 0 0 0
O 0.7917411579875776	0.7454099947694558	0.7454000210459139	 0 0 0

K_POINTS automatic
6 6 6 0 0 0
