
&CONTROL
    calculation   = 'vc-relax'
    restart_mode  = 'from_scratch'
    prefix        = 'Landau_33'
    pseudo_dir    = '/cluster/scratch/mnoe/QE/pps'
    outdir        = './'
    forc_conv_thr = 1.0d-7
    etot_conv_thr = 1.0d-7

/
&SYSTEM
    ibrav       = 0
    nat         = 32
    ntyp        = 2
    ecutwfc     = 120
    occupations = 'smearing'
    degauss     = 7.35d-4
    tot_charge  = -0.0
/
&ELECTRONS
    conv_thr    = 1.0d-8
    diagonalization = 'david'
/


&IONS
ion_dynamics = 'bfgs'
/

&CELL
cell_dynamics = 'bfgs'
cell_dofree = 'all'
/
CELL_PARAMETERS angstrom
        7.3236460686         0.0000000000         0.0000000000
        0.0000000000         7.7495899200         0.0000000000
        0.0000000000         0.0000000000         7.3236460686

ATOMIC_SPECIES
W 183.84 W_ONCV_LDA-4.0.upf
O 15.9994 O_ONCV_LDA-3.0.upf

ATOMIC_POSITIONS crystal
W 0.234740001	0.2876954737309707	0.014410001	 0 0 0
W 0.76525995	0.7123045262690293	0.985589955	 0 0 0
W 0.265259983	0.21230453353650688	0.514410012	 0 0 0
W 0.73474005	0.7876954427309707	0.485590021	 0 0 0
W 0.76525995	0.2876954737309707	0.485590021	 0 0 0
W 0.234740001	0.7123045262690293	0.514410012	 0 0 0
W 0.73474005	0.21230453353650688	0.985589955	 0 0 0
W 0.265259983	0.7876954427309707	0.014410001	 0 0 0
O 0.221849994	0.019362042526269746	0.00448	 0 0 0
O 0.778150023	0.9806379943922706	0.995519976	 0 0 0
O 0.278150023	0.4806379474117243	0.504479992	 0 0 0
O 0.721849977	0.519362037568822	0.495520008	 0 0 0
O 0.778150023	0.019362042526269746	0.495520008	 0 0 0
O 0.221849994	0.9806379943922706	0.504479992	 0 0 0
O 0.721849977	0.4806379474117243	0.995519976	 0 0 0
O 0.278150023	0.519362037568822	0.00448	 0 0 0
O 0.504169994	0.221119994	0.4797020170593712	 0 0 0
O 0.495830006	0.778880021	0.5202979834482259	 0 0 0
O 0.995829974	0.27887999	0.9797020253152995	 0 0 0
O 0.004169941	0.72112001	0.020298021622694562	 0 0 0
O 0.495830006	0.221119994	0.020298021622694562	 0 0 0
O 0.504169994	0.778880021	0.9797020253152995	 0 0 0
O 0.004169941	0.27887999	0.5202979834482259	 0 0 0
O 0.995829974	0.72112001	0.4797020170593712	 0 0 0
O 0.7297020670709206	0.243689993	0.743670017	 0 0 0
O 0.2702980076847006	0.756310007	0.256330016	 0 0 0
O 0.7702979664366766	0.256309991	0.243669984	 0 0 0
O 0.22970203357487268	0.743690024	0.756329983	 0 0 0
O 0.2702980076847006	0.243689993	0.756329983	 0 0 0
O 0.7297020670709206	0.756310007	0.243669984	 0 0 0
O 0.22970203357487268	0.256309991	0.256330016	 0 0 0
O 0.7702979664366766	0.743690024	0.743670017	 0 0 0

K_POINTS automatic
6 6 6 0 0 0
