&CONTROL
    calculation   = 'scf'
    restart_mode  = 'from_scratch'
    prefix        = 'Landau_11'
    pseudo_dir    = '/cluster/scratch/mnoe/QE/pps'
    outdir        = './'
/
&SYSTEM
    ibrav       = 0
    nat         = 32
    ntyp        = 2
    ecutwfc     = 120
    occupations = 'smearing'
    degauss     = 7.35d-4
    tot_charge  = -0.2
/
&ELECTRONS
    conv_thr    = 1.0d-8
    diagonalization = 'david'
/

CELL_PARAMETERS angstrom
   7.356587373   0.000000000   0.000000000
   0.000000000   7.678186281   0.000000000
   0.000000000   0.000000000   7.373500399

ATOMIC_SPECIES
W 183.84 W_ONCV_LDA-4.0.upf
O 15.9994 O_ONCV_LDA-3.0.upf

ATOMIC_POSITIONS crystal
W 0.23983001	0.2796727970075479	0.00961	
W 0.760169946373567	0.7203272029924521	0.990390005	
W 0.26016999	0.22032721871910416	0.509609995	
W 0.7398300303735671	0.7796727885337618	0.490390005	
W 0.760169946373567	0.2796727970075479	0.490390005	
W 0.23983001	0.7203272029924521	0.509609995	
W 0.7398300303735671	0.22032721871910416	0.990390005	
W 0.26016999	0.7796727885337618	0.00961	
O 0.231229998	0.007724140222914436	0.00299	
O 0.7687699903735671	0.9922758675173923	0.997009996	
O 0.268769986	0.4922758590436062	0.502990004	
O 0.7312299863735671	0.5077241324826077	0.497009996	
O 0.7687699903735671	0.007724140222914436	0.497009996	
O 0.231229998	0.9922758675173923	0.502990004	
O 0.7312299863735671	0.4922758590436062	0.997009996	
O 0.268769986	0.5077241324826077	0.00299	
O 0.502780018	0.230749996	0.4548881530003291	
O 0.497219982	0.769250029899781	0.5451118379791889	
O 0.997219982	0.269250019	0.9548881860003291	
O 0.002779961	0.730749960899781	0.04511184265341317	
O 0.497219982	0.230749996	0.04511184265341317	
O 0.502780018	0.769250029899781	0.9548881860003291	
O 0.002779961	0.269250019	0.5451118379791889	
O 0.997219982	0.730749960899781	0.4548881530003291	
O 0.7048881736472441	0.2458	0.7457799563735671	
O 0.2951118353732379	0.754200010899781	0.254220016	
O 0.7951118496056219	0.254199985	0.245779984	
O 0.2048881690003291	0.745800041899781	0.7542200203735671	
O 0.2951118353732379	0.2458	0.7542200203735671	
O 0.7048881736472441	0.754200010899781	0.245779984	
O 0.2048881690003291	0.254199985	0.254220016	
O 0.7951118496056219	0.745800041899781	0.7457799563735671	

K_POINTS automatic
6 6 6 0 0 0
