
&CONTROL
    calculation   = 'vc-relax'
    restart_mode  = 'from_scratch'
    prefix        = 'Landau_21'
    pseudo_dir    = '/cluster/scratch/mnoe/QE/pps'
    outdir        = './'
    forc_conv_thr = 1.0d-7
    etot_conv_thr = 1.0d-7

/
&SYSTEM
    ibrav       = 0
    nat         = 32
    ntyp        = 2
    ecutwfc     = 120
    occupations = 'smearing'
    degauss     = 7.35d-4
    tot_charge  = -0.0
/
&ELECTRONS
    conv_thr    = 1.0d-8
    diagonalization = 'david'
/


&IONS
ion_dynamics = 'bfgs'
/

&CELL
cell_dynamics = 'bfgs'
cell_dofree = 'all'
/
CELL_PARAMETERS angstrom
        7.3236460686         0.0000000000         0.0000000000
        0.0000000000         7.7495899200         0.0000000000
        0.0000000000         0.0000000000         7.3236460686

ATOMIC_SPECIES
W 183.84 W_ONCV_LDA-4.0.upf
O 15.9994 O_ONCV_LDA-3.0.upf

ATOMIC_POSITIONS crystal
W 0.25	0.2789326741038126	0.0	 0 0 0
W 0.7499999844393288	0.7210673258961874	0.0	 0 0 0
W 0.25	0.2210673418687293	0.5	 0 0 0
W 0.7499999844393288	0.7789326732526131	0.5	 0 0 0
W 0.7499999844393288	0.2789326741038126	0.5	 0 0 0
W 0.25	0.7210673258961874	0.5	 0 0 0
W 0.7499999844393288	0.2210673418687293	0.0	 0 0 0
W 0.25	0.7789326732526131	0.0	 0 0 0
O 0.25	0.007522508794527031	0.0	 0 0 0
O 0.7499999844393288	0.992477493782092	0.0	 0 0 0
O 0.25	0.4924774929308925	0.5	 0 0 0
O 0.7499999844393288	0.507522506217908	0.5	 0 0 0
O 0.7499999844393288	0.007522508794527031	0.5	 0 0 0
O 0.25	0.992477493782092	0.5	 0 0 0
O 0.7499999844393288	0.4924774929308925	0.0	 0 0 0
O 0.25	0.507522506217908	0.0	 0 0 0
O 0.5	0.25	0.4566978991245589	 0 0 0
O 0.5	0.7499999995881292	0.5433020999693253	 0 0 0
O 0.0	0.25	0.9566979321245589	 0 0 0
O 0.0	0.7499999995881292	0.04330208964426653	 0 0 0
O 0.5	0.25	0.04330208964426653	 0 0 0
O 0.5	0.7499999995881292	0.9566979321245589	 0 0 0
O 0.0	0.25	0.5433020999693253	 0 0 0
O 0.0	0.7499999995881292	0.4566978991245589	 0 0 0
O 0.7066979155913458	0.25	0.7499999844393288	 0 0 0
O 0.29330208531476987	0.7499999995881292	0.25	 0 0 0
O 0.7933021155299965	0.25	0.25	 0 0 0
O 0.2066979151245589	0.7499999995881292	0.7499999844393288	 0 0 0
O 0.29330208531476987	0.25	0.7499999844393288	 0 0 0
O 0.7066979155913458	0.7499999995881292	0.25	 0 0 0
O 0.2066979151245589	0.25	0.25	 0 0 0
O 0.7933021155299965	0.7499999995881292	0.7499999844393288	 0 0 0

K_POINTS automatic
6 6 6 0 0 0
