
&CONTROL
    calculation   = 'vc-relax'
    restart_mode  = 'from_scratch'
    prefix        = 'Landau_2'
    pseudo_dir    = '/cluster/scratch/mnoe/QE/pps'
    outdir        = './'
    forc_conv_thr = 1.0d-7
    etot_conv_thr = 1.0d-7

/
&SYSTEM
    ibrav       = 0
    nat         = 32
    ntyp        = 2
    ecutwfc     = 120
    occupations = 'smearing'
    degauss     = 7.35d-4
    tot_charge  = -0.0
/
&ELECTRONS
    conv_thr    = 1.0d-8
    diagonalization = 'david'
/


&IONS
ion_dynamics = 'bfgs'
/

&CELL
cell_dynamics = 'bfgs'
cell_dofree = 'all'
/
CELL_PARAMETERS angstrom
        7.3236460686         0.0000000000         0.0000000000
        0.0000000000         7.3236460686         0.0000000000
        0.0000000000         0.0000000000         7.7495899200

ATOMIC_SPECIES
W 183.84 W_ONCV_LDA-4.0.upf
O 15.9994 O_ONCV_LDA-3.0.upf

ATOMIC_POSITIONS crystal
W 0.249130000         0.249090002         0.218119991 0 0 0
W 0.750869983         0.750909965         0.218119991 0 0 0
W 0.249090002         0.750869983         0.781880024 0 0 0
W 0.750909965         0.249130000         0.781880024 0 0 0
W 0.250869983         0.749090002         0.281880024 0 0 0
W 0.749129984         0.250909982         0.281880024 0 0 0
W 0.250909982         0.250869983         0.718119976 0 0 0
W 0.749090002         0.749129984         0.718119976 0 0 0
O 0.248150001         0.248159997         0.491670026 0 0 0
O 0.751849999         0.751839971         0.491670026 0 0 0
O 0.248159997         0.751849999         0.508329974 0 0 0
O 0.751839971         0.248150001         0.508329974 0 0 0
O 0.251850015         0.748159997         0.008329987 0 0 0
O 0.748149969         0.251840003         0.008329987 0 0 0
O 0.251840003         0.251850015         0.991670026 0 0 0
O 0.748159997         0.748149969         0.991670026 0 0 0
O 0.199410008         0.499749982         0.251560009 0 0 0
O 0.800589976         0.500249985         0.251560009 0 0 0
O 0.499749982         0.800589976         0.748440022 0 0 0
O 0.500249985         0.199410008         0.748440022 0 0 0
O 0.300589976         0.999750015         0.248439991 0 0 0
O 0.699409992         0.000250012         0.248439991 0 0 0
O 0.000250012         0.300589976         0.751559978 0 0 0
O 0.999750015         0.699409992         0.751559978 0 0 0
O 0.999610012         0.199410008         0.247790000 0 0 0
O 0.000389993         0.800589976         0.247790000 0 0 0
O 0.199410008         0.000389993         0.752210046 0 0 0
O 0.800589976         0.999610012         0.752210046 0 0 0
O 0.500389988         0.699409992         0.252210015 0 0 0
O 0.499609947         0.300589976         0.252210015 0 0 0
O 0.300589976         0.500389988         0.747789954 0 0 0
O 0.699409992         0.499609947         0.747789954 0 0 0

K_POINTS automatic
6 6 6 0 0 0
