&CONTROL
    calculation   = 'scf'
    restart_mode  = 'from_scratch'
    prefix        = 'Landau_13'
    pseudo_dir    = '/cluster/scratch/mnoe/QE/pps'
    outdir        = './'
/
&SYSTEM
    ibrav       = 0
    nat         = 32
    ntyp        = 2
    ecutwfc     = 120
    occupations = 'smearing'
    degauss     = 7.35d-4
    tot_charge  = -0.6
/
&ELECTRONS
    conv_thr    = 1.0d-8
    diagonalization = 'david'
/

CELL_PARAMETERS angstrom
   7.468413268  -0.000000060   0.000000004
  -0.000000055   7.638723747  -0.000000031
   0.000000004  -0.000000025   7.468413169

ATOMIC_SPECIES
W 183.84 W_ONCV_LDA-4.0.upf
O 15.9994 O_ONCV_LDA-3.0.upf

ATOMIC_POSITIONS crystal
W 0.25	0.27151246549862645	0.0	
W 0.7499999449960582	0.7284875345013736	0.0	
W 0.25	0.22848755293911976	0.5	
W 0.7499999449960582	0.7715125410687639	0.5	
W 0.7499999449960582	0.27151246549862645	0.5	
W 0.25	0.7284875345013736	0.5	
W 0.7499999449960582	0.22848755293911976	0.0	
W 0.25	0.7715125410687639	0.0	
O 0.25	0.005501023913508743	0.0	
O 0.7499999449960582	0.9944989268938175	0.0	
O 0.25	0.49449900246395495	0.5	
O 0.7499999449960582	0.5055010731061825	0.5	
O 0.7499999449960582	0.005501023913508743	0.5	
O 0.25	0.9944989268938175	0.5	
O 0.7499999449960582	0.49449900246395495	0.0	
O 0.25	0.5055010731061825	0.0	
O 0.5	0.25	0.47484176914457854	
O 0.5	0.7500000365661956	0.5251583113010515	
O 0.0	0.25	0.9748418021445785	
O 0.0	0.7500000365661956	0.0251581505985231	
O 0.5	0.25	0.0251581505985231	
O 0.5	0.7500000365661956	0.9748418021445785	
O 0.0	0.25	0.5251583113010515	
O 0.0	0.7500000365661956	0.47484176914457854	
O 0.7248417437028905	0.25	0.7499999449960582	
O 0.2751581758514794	0.7500000365661956	0.25	
O 0.7751583663049934	0.25	0.25	
O 0.22484178514457853	0.7500000365661956	0.7499999449960582	
O 0.2751581758514794	0.25	0.7499999449960582	
O 0.7248417437028905	0.7500000365661956	0.25	
O 0.22484178514457853	0.25	0.25	
O 0.7751583663049934	0.7500000365661956	0.7499999449960582	

K_POINTS automatic
6 6 6 0 0 0
