
&CONTROL
    calculation   = 'vc-relax'
    restart_mode  = 'from_scratch'
    prefix        = 'Landau_17'
    pseudo_dir    = '/cluster/scratch/mnoe/QE/pps'
    outdir        = './'
    forc_conv_thr = 1.0d-7
    etot_conv_thr = 1.0d-7

/
&SYSTEM
    ibrav       = 0
    nat         = 32
    ntyp        = 2
    ecutwfc     = 120
    occupations = 'smearing'
    degauss     = 7.35d-4
    tot_charge  = -0.0
/
&ELECTRONS
    conv_thr    = 1.0d-8
    diagonalization = 'david'
/


&IONS
ion_dynamics = 'bfgs'
/

&CELL
cell_dynamics = 'bfgs'
cell_dofree = 'all'
/
CELL_PARAMETERS angstrom
        7.3236460686         0.0000000000         0.0000000000
        0.0000000000         7.7495899200         0.0000000000
        0.0000000000         0.0000000000         7.3236460686

ATOMIC_SPECIES
W 183.84 W_ONCV_LDA-4.0.upf
O 15.9994 O_ONCV_LDA-3.0.upf

ATOMIC_POSITIONS crystal
W 0.21945877579017148	0.2782701858843024	-0.0008745315978381987	 0 0 0
W 0.7508745320443247	0.7217298141156976	-0.03054118175609648	 0 0 0
W 0.2805412242098286	0.22172983030833696	0.4991254624586393	 0 0 0
W 0.7491254493199316	0.7782701918561233	0.4694587757901714	 0 0 0
W 0.7805411822025831	0.2782701858843024	0.5008745375413607	 0 0 0
W 0.2491254624586393	0.7217298141156976	0.5305412242098285	 0 0 0
W 0.7194587991616734	0.22172983030833696	0.000874551126554917	 0 0 0
W 0.2508745375413607	0.7782701918561233	0.030541201284813198	 0 0 0
O 0.2164105901839924	0.007342027356490824	-0.024368411656532654	 0 0 0
O 0.77436838663078	-0.0073420294019178765	-0.03358936821135011	 0 0 0
O 0.28358936821135017	0.492657976569903	0.4756315382480635	 0 0 0
O 0.7256315692612372	0.5073420294019179	0.46641060376918664	 0 0 0
O 0.7835893431855975	0.007342027356490824	0.5243684473176676	 0 0 0
O 0.22563152466286923	-0.0073420294019178765	0.5335893817965444	 0 0 0
O 0.7164106127064197	0.492657976569903	0.024368405713010195	 0 0 0
O 0.2743684337324733	0.5073420294019179	0.033589362267827653	 0 0 0
O 0.510808715097245	0.2137869690691639	0.4583178131706662	 0 0 0
O 0.5022160661357796	0.7732392021603655	0.5416821931864334	 0 0 0
O -0.010808687926856558	0.2862130054585968	0.9583178461706663	 0 0 0
O -0.0022160533996599726	0.7267609063568479	0.04168216943543098	 0 0 0
O 0.4891912849027549	0.2137869690691639	0.04168216943543098	 0 0 0
O 0.4977839338642203	0.7732392021603655	0.9583178461706663	 0 0 0
O 0.010808672643513009	0.2862130054585968	0.5416821931864334	 0 0 0
O 0.0022160381163164235	0.7267609063568479	0.4583178131706662	 0 0 0
O 0.7083178258957967	0.27323914832629614	0.7477839428014534	 0 0 0
O 0.29168216774710354	0.7862130856139801	0.2608087150972451	 0 0 0
O 0.7916822122686635	0.22676082620146454	0.24778398905407212	 0 0 0
O 0.20831782917066627	0.7137870229032333	0.7608087240344782	 0 0 0
O 0.29168216774710354	0.27323914832629614	0.7522160895072816	 0 0 0
O 0.7083178258957967	0.7862130856139801	0.23919134009260667	 0 0 0
O 0.20831782917066627	0.22676082620146454	0.2522160661357797	 0 0 0
O 0.7916822122686635	0.7137870229032333	0.7391913082742568	 0 0 0

K_POINTS automatic
6 6 6 0 0 0
