
&CONTROL
    calculation   = 'vc-relax'
    restart_mode  = 'from_scratch'
    prefix        = 'Landau_20'
    pseudo_dir    = '/cluster/scratch/mnoe/QE/pps'
    outdir        = './'
    forc_conv_thr = 1.0d-7
    etot_conv_thr = 1.0d-7

/
&SYSTEM
    ibrav       = 0
    nat         = 32
    ntyp        = 2
    ecutwfc     = 120
    occupations = 'smearing'
    degauss     = 7.35d-4
    tot_charge  = -0.0
/
&ELECTRONS
    conv_thr    = 1.0d-8
    diagonalization = 'david'
/


&IONS
ion_dynamics = 'bfgs'
/

&CELL
cell_dynamics = 'bfgs'
cell_dofree = 'all'
/
CELL_PARAMETERS angstrom
        7.3236460686         0.0000000000         0.0000000000
        0.0000000000         7.7495899200         0.0000000000
        0.0000000000         0.0000000000         7.3236460686

ATOMIC_SPECIES
W 183.84 W_ONCV_LDA-4.0.upf
O 15.9994 O_ONCV_LDA-3.0.upf

ATOMIC_POSITIONS crystal
W 0.240749992	0.2769076276990829	0.008740001	 0 0 0
W 0.7592499656748803	0.7230923723009172	0.991259965	 0 0 0
W 0.259249992	0.223092388946237	0.508740003	 0 0 0
W 0.7407499816748804	0.7769076477040023	0.491259997	 0 0 0
W 0.7592499656748803	0.2769076276990829	0.491259997	 0 0 0
W 0.240749992	0.7230923723009172	0.508740003	 0 0 0
W 0.7407499816748804	0.223092388946237	0.991259965	 0 0 0
W 0.259249992	0.7769076477040023	0.008740001	 0 0 0
O 0.232939999	0.006970826098213014	0.00272	 0 0 0
O 0.7670599426748803	0.9930291623500674	0.997280016	 0 0 0
O 0.267059985	0.49302918235498683	0.502719984	 0 0 0
O 0.7329400046748804	0.5069708376499326	0.497280016	 0 0 0
O 0.7670599426748803	0.006970826098213014	0.497280016	 0 0 0
O 0.232939999	0.9930291623500674	0.502719984	 0 0 0
O 0.7329400046748804	0.49302918235498683	0.997280016	 0 0 0
O 0.267059985	0.5069708376499326	0.00272	 0 0 0
O 0.502529988	0.232500008	0.4616495360268212	 0 0 0
O 0.497470012	0.7675000016797998	0.5383504852687381	 0 0 0
O 0.997470012	0.267499977	0.9616495690268212	 0 0 0
O 0.002529979	0.7325000166797998	0.03835043390421931	 0 0 0
O 0.497470012	0.232500008	0.03835043390421931	 0 0 0
O 0.502529988	0.7675000016797998	0.9616495690268212	 0 0 0
O 0.002529979	0.267499977	0.5383504852687381	 0 0 0
O 0.997470012	0.7325000166797998	0.4616495360268212	 0 0 0
O 0.7116495410563816	0.246179993	0.7461599346748804	 0 0 0
O 0.288350437648059	0.7538200006797997	0.253840023	 0 0 0
O 0.7883505115938578	0.253820007	0.246160026	 0 0 0
O 0.2116495520268212	0.7461800176797998	0.7538400126748803	 0 0 0
O 0.288350437648059	0.246179993	0.7538400126748803	 0 0 0
O 0.7116495410563816	0.7538200006797997	0.246160026	 0 0 0
O 0.2116495520268212	0.253820007	0.253840023	 0 0 0
O 0.7883505115938578	0.7461800176797998	0.7461599346748804	 0 0 0

K_POINTS automatic
6 6 6 0 0 0
