&CONTROL
    calculation   = 'scf'
    restart_mode  = 'from_scratch'
    prefix        = 'Landau_19'
    pseudo_dir    = '/cluster/scratch/mnoe/QE/pps'
    outdir        = './'
/
&SYSTEM
    ibrav       = 0
    nat         = 32
    ntyp        = 2
    ecutwfc     = 120
    occupations = 'smearing'
    degauss     = 7.35d-4
    tot_charge  = -0.6
/
&ELECTRONS
    conv_thr    = 1.0d-8
    diagonalization = 'david'
/

CELL_PARAMETERS angstrom
   7.507761746   0.000000038   0.000000007
   0.000000048   7.601866670   0.000000075
   0.000000007   0.000000066   7.507762222

ATOMIC_SPECIES
W 183.84 W_ONCV_LDA-4.0.upf
O 15.9994 O_ONCV_LDA-3.0.upf

ATOMIC_POSITIONS crystal
W 0.25	0.26673667895953096	0.0	
W 0.7499999196096234	0.7332633210404691	0.0	
W 0.25	0.23326334106486735	0.5	
W 0.7499999196096234	0.7667368037158857	0.5	
W 0.7499999196096234	0.26673667895953096	0.5	
W 0.25	0.7332633210404691	0.5	
W 0.7499999196096234	0.23326334106486735	0.0	
W 0.25	0.7667368037158857	0.0	
O 0.25	0.004199958027435856	0.0	
O 0.7499999196096234	0.9957999594601948	0.0	
O 0.25	0.4958000842165496	0.5	
O 0.7499999196096234	0.5042000405398052	0.5	
O 0.7499999196096234	0.004199958027435856	0.5	
O 0.25	0.9957999594601948	0.5	
O 0.7499999196096234	0.4958000842165496	0.0	
O 0.25	0.5042000405398052	0.0	
O 0.5	0.25	0.4865195069036148	
O 0.5	0.7500000603659782	0.5134806259015368	
O 0.0	0.25	0.9865195399036147	
O 0.0	0.7500000603659782	0.013480368413226071	
O 0.5	0.25	0.013480368413226071	
O 0.5	0.7500000603659782	0.9865195399036147	
O 0.0	0.25	0.5134806259015368	
O 0.0	0.7500000603659782	0.4865195069036148	
O 0.7365194544888398	0.25	0.7499999196096234	
O 0.26348041270600836	0.7500000603659782	0.25	
O 0.7634807062919133	0.25	0.25	
O 0.2365195229036148	0.7500000603659782	0.7499999196096234	
O 0.26348041270600836	0.25	0.7499999196096234	
O 0.7365194544888398	0.7500000603659782	0.25	
O 0.2365195229036148	0.25	0.25	
O 0.7634807062919133	0.7500000603659782	0.7499999196096234	

K_POINTS automatic
6 6 6 0 0 0
