
&CONTROL
    calculation   = 'vc-relax'
    restart_mode  = 'from_scratch'
    prefix        = 'Landau_15'
    pseudo_dir    = '/cluster/scratch/mnoe/QE/pps'
    outdir        = './'
    forc_conv_thr = 1.0d-7
    etot_conv_thr = 1.0d-7

/
&SYSTEM
    ibrav       = 0
    nat         = 32
    ntyp        = 2
    ecutwfc     = 120
    occupations = 'smearing'
    degauss     = 7.35d-4
    tot_charge  = -0.0
/
&ELECTRONS
    conv_thr    = 1.0d-8
    diagonalization = 'david'
/


&IONS
ion_dynamics = 'bfgs'
/

&CELL
cell_dynamics = 'bfgs'
cell_dofree = 'all'
/
CELL_PARAMETERS angstrom
        7.3236460686         0.0000000000         0.0000000000
        0.0000000000         7.7495899200         0.0000000000
        0.0000000000         0.0000000000         7.3236460686

ATOMIC_SPECIES
W 183.84 W_ONCV_LDA-4.0.upf
O 15.9994 O_ONCV_LDA-3.0.upf

ATOMIC_POSITIONS crystal
W 0.256500009	0.2735494263087587	-0.993160029	 0 0 0
W 0.7431599847174147	0.7264505736912412	-0.993500007	 0 0 0
W 0.243499991	0.22645059145890273	-0.493159997	 0 0 0
W 0.7568399587174147	0.7735495121062677	-0.49349999099999997	 0 0 0
W 0.7434999627174147	0.2735494263087587	-0.506839987	 0 0 0
W 0.256839987	0.7264505736912412	-0.506500009	 0 0 0
W 0.7564999817174147	0.22645059145890273	-1.006840003	 0 0 0
W 0.243159997	0.7735495121062677	-1.0065000259999999	 0 0 0
O 0.26385999	0.006060485133041693	-0.986209994	 0 0 0
O 0.7362099497174147	0.9939394697460652	-0.986139993	 0 0 0
O 0.236139993	0.4939395555435741	-0.486210011	 0 0 0
O 0.7637899937174147	0.5060605302539348	-0.486139993	 0 0 0
O 0.7361399487174147	0.006060485133041693	-0.513790006	 0 0 0
O 0.263790006	0.9939394697460652	-0.51385999	 0 0 0
O 0.7638599297174148	0.4939395555435741	-1.013790038	 0 0 0
O 0.236210011	0.5060605302539348	-1.013859974	 0 0 0
O 0.497109996	0.266549993	-0.5302200255388612	 0 0 0
O 0.501889997	0.7382800555149237	-0.46977986712830677	 0 0 0
O 0.002889991	0.233449992	-1.0302200255388612	 0 0 0
O 0.99810997	0.7617200275149237	-0.9697800199556629	 0 0 0
O 0.502890004	0.266549993	-0.9697800199556629	 0 0 0
O 0.498110003	0.7382800555149237	-1.0302200255388612	 0 0 0
O 0.997110029	0.233449992	-0.46977986712830677	 0 0 0
O 0.001890004	0.7617200275149237	-0.5302200255388612	 0 0 0
O 0.719779895410892	0.238279998	-0.2518900482825852	 0 0 0
O 0.2802199812562759	0.7334500485149237	-0.752890004	 0 0 0
O 0.7802201611542785	0.261719986	-0.751889997	 0 0 0
O 0.21977995846113874	0.7665500345149238	-0.2528900352825852	 0 0 0
O 0.2802199812562759	0.238279998	-1.2481100142825852	 0 0 0
O 0.719779895410892	0.7334500485149237	-0.747109996	 0 0 0
O 0.21977995846113874	0.261719986	-0.7481100030000001	 0 0 0
O 0.7802201611542785	0.7665500345149238	-1.247110073282585	 0 0 0

K_POINTS automatic
6 6 6 0 0 0
