
&CONTROL
    calculation   = 'vc-relax'
    restart_mode  = 'from_scratch'
    prefix        = 'Landau_15'
    pseudo_dir    = '/cluster/scratch/mnoe/QE/pps'
    outdir        = './'
    forc_conv_thr = 1.0d-7
    etot_conv_thr = 1.0d-7

/
&SYSTEM
    ibrav       = 0
    nat         = 32
    ntyp        = 2
    ecutwfc     = 120
    occupations = 'smearing'
    degauss     = 7.35d-4
    tot_charge  = -0.0
/
&ELECTRONS
    conv_thr    = 1.0d-8
    diagonalization = 'david'
/


&IONS
ion_dynamics = 'bfgs'
/

&CELL
cell_dynamics = 'bfgs'
cell_dofree = 'all'
/
CELL_PARAMETERS angstrom
        7.3236460686         0.0000000000         0.0000000000
        0.0000000000         7.7495899200         0.0000000000
        0.0000000000         0.0000000000         7.3236460686

ATOMIC_SPECIES
W 183.84 W_ONCV_LDA-4.0.upf
O 15.9994 O_ONCV_LDA-3.0.upf

ATOMIC_POSITIONS crystal
W 0.26349003000000004	0.2869539976	0.250390017	 0 0 0
W -0.25039002	0.7130460023999999	-0.7365099860000001	 0 0 0
W 0.23650997	0.21304601065	0.750389972	 0 0 0
W 0.750390017	0.7869539666	0.76349003	 0 0 0
W 0.7365099829999999	0.2869539976	0.749610028	 0 0 0
W 0.250389972	0.7130460023999999	0.73650997	 0 0 0
W -0.23650998599999995	0.21304601065	-0.7503900200000001	 0 0 0
W 0.24961002800000004	0.7869539666	0.23650998299999998	 0 0 0
O 0.2648399779999999	0.01795900045	0.26075995700000004	 0 0 0
O -0.260759936	0.9820410347	-0.7351600220000001	 0 0 0
O 0.235160005	0.48204098975000004	0.760759953	 0 0 0
O 0.760759957	0.5179589932	0.7648399619999999	 0 0 0
O 0.735160043	0.01795900045	0.739239998	 0 0 0
O 0.260759969	0.9820410347	0.735159989	 0 0 0
O -0.23516002199999997	0.48204098975000004	-0.7607599360000001	 0 0 0
O 0.23924001399999995	0.5179589932	0.23516004299999999	 0 0 0
O 0.49522000600000005	0.26599998700000005	0.725869522	 0 0 0
O 0.49902006600000015	0.7397398929999999	0.7741304742499999	 0 0 0
O -0.995219989	0.233999998	1.2258695334	 0 0 0
O 0.000980022999999976	0.760259955	0.2741305138	 0 0 0
O 0.5047799940000001	0.26599998700000005	0.2741305138	 0 0 0
O 0.500979934	0.7397398929999999	1.2258695334	 0 0 0
O -0.004779938999999976	0.233999998	0.7741304742499999	 0 0 0
O -1.000979951	0.760259955	0.725869522	 0 0 0
O 0.7258695698499998	0.23973998400000002	2.000979934	 0 0 0
O 0.2741304996	0.7339999679999999	0.495219989	 0 0 0
O 0.7741304594	0.260260001	0.5009799509999999	 0 0 0
O 0.22586953844999996	0.76599988	1.995220006	 0 0 0
O 0.2741304996	0.23973998400000002	0.9990199940000001	 0 0 0
O 0.72586956985	0.7339999679999999	0.504780011	 0 0 0
O 0.22586953845000002	0.260260001	0.4990200490000001	 0 0 0
O 0.7741304594	0.76599988	1.004779922	 0 0 0

K_POINTS automatic
6 6 6 0 0 0
