
&CONTROL
    calculation   = 'vc-relax'
    restart_mode  = 'from_scratch'
    prefix        = 'Landau_10'
    pseudo_dir    = '/cluster/scratch/mnoe/QE/pps'
    outdir        = './'
    forc_conv_thr = 1.0d-7
    etot_conv_thr = 1.0d-7

/
&SYSTEM
    ibrav       = 0
    nat         = 32
    ntyp        = 2
    ecutwfc     = 120
    occupations = 'smearing'
    degauss     = 7.35d-4
    tot_charge  = -0.0
/
&ELECTRONS
    conv_thr    = 1.0d-8
    diagonalization = 'david'
/


&IONS
ion_dynamics = 'bfgs'
/

&CELL
cell_dynamics = 'bfgs'
cell_dofree = 'all'
/
CELL_PARAMETERS angstrom
        7.3236460686         0.0000000000         0.0000000000
        0.0000000000         7.7495899200         0.0000000000
        0.0000000000         0.0000000000         7.3236460686

ATOMIC_SPECIES
W 183.84 W_ONCV_LDA-4.0.upf
O 15.9994 O_ONCV_LDA-3.0.upf

ATOMIC_POSITIONS crystal
W 0.23201499450000002	0.2808617389049317	-0.0005149909999999994	 0 0 0
W 0.7505149971935722	0.7191382610950683	-0.017984980500000025	 0 0 0
W 0.26798500550000004	0.21913827642672	0.49948500549999997	 0 0 0
W 0.7494850036935723	0.7808617181861355	0.48201499449999996	 0 0 0
W 0.7679849866935722	0.2808617389049317	0.5005149945	 0 0 0
W 0.24948500550000002	0.7191382610950683	0.5179850055	 0 0 0
W 0.7320150141935722	0.21913827642672	0.0005150024999999725	 0 0 0
W 0.25051499450000003	0.7808617181861355	0.017984991999999998	 0 0 0
O 0.23021998999999999	0.008048043255544925	-0.014349982000000006	 0 0 0
O 0.7643499731935722	-0.008048027220231345	-0.019779985499999986	 0 0 0
O 0.26977998550000004	0.4919519520609724	0.48564998849999996	 0 0 0
O 0.7356500126935722	0.5080480272202313	0.480219998	 0 0 0
O 0.7697799766935722	0.008048043255544925	0.514350003	 0 0 0
O 0.23564998050000002	-0.008048027220231345	0.5197799935	 0 0 0
O 0.7302200091935722	0.4919519520609724	0.014349978500000027	 0 0 0
O 0.264349995	0.5080480272202313	0.019779982000000005	 0 0 0
O 0.5063649969999999	0.22867500149999997	0.4519809561282073	 0 0 0
O 0.501304989	0.763685005474776	0.5480190218162999	 0 0 0
O -0.006364981000000006	0.2713249835	0.9519809891282074	 0 0 0
O -0.0013049814999999982	0.736315034974776	0.04801905058554405	 0 0 0
O 0.49363500299999996	0.22867500149999997	0.04801905058554405	 0 0 0
O 0.49869501099999997	0.763685005474776	0.9519809891282074	 0 0 0
O 0.006364972000000009	0.2713249835	0.5480190218162999	 0 0 0
O 0.0013049725000000012	0.736315034974776	0.4519809561282073	 0 0 0
O 0.7019809834901278	0.26368498549999997	0.7486950221935722	 0 0 0
O 0.2980190385653649	0.771325018974776	0.25636499700000004	 0 0 0
O 0.7980190271227277	0.23631499949999998	0.2486950435	 0 0 0
O 0.20198097212820737	0.728675021474776	0.7563650081935722	 0 0 0
O 0.2980190385653649	0.26368498549999997	0.7513050086935722	 0 0 0
O 0.7019809834901278	0.771325018974776	0.24363503550000004	 0 0 0
O 0.20198097212820737	0.23631499949999998	0.25130498900000003	 0 0 0
O 0.7980190271227277	0.728675021474776	0.7436350226935722	 0 0 0

K_POINTS automatic
6 6 6 0 0 0
