
&CONTROL
    calculation   = 'vc-relax'
    restart_mode  = 'from_scratch'
    prefix        = 'Landau_10'
    pseudo_dir    = '/cluster/scratch/mnoe/QE/pps'
    outdir        = './'
    forc_conv_thr = 1.0d-7
    etot_conv_thr = 1.0d-7

/
&SYSTEM
    ibrav       = 0
    nat         = 32
    ntyp        = 2
    ecutwfc     = 120
    occupations = 'smearing'
    degauss     = 7.35d-4
    tot_charge  = -0.0
/
&ELECTRONS
    conv_thr    = 1.0d-8
    diagonalization = 'david'
/


&IONS
ion_dynamics = 'bfgs'
/

&CELL
cell_dynamics = 'bfgs'
cell_dofree = 'all'
/
CELL_PARAMETERS angstrom
        7.3236460686         0.0000000000         0.0000000000
        0.0000000000         7.7495899200         0.0000000000
        0.0000000000         0.0000000000         7.3236460686

ATOMIC_SPECIES
W 183.84 W_ONCV_LDA-4.0.upf
O 15.9994 O_ONCV_LDA-3.0.upf

ATOMIC_POSITIONS crystal
W 0.254339987	0.27632629220583915	-0.995439982	 0 0 0
W 0.7454399524782764	0.7236737077941608	-0.995660013	 0 0 0
W 0.245660013	0.2236737246392685	-0.49544001400000004	 0 0 0
W 0.7545599564782765	0.7763263494041784	-0.495660013	 0 0 0
W 0.7456599834782764	0.27632629220583915	-0.5045599860000001	 0 0 0
W 0.254559986	0.7236737077941608	-0.504339987	 0 0 0
W 0.7543399904782765	0.2236737246392685	-1.0045599859999998	 0 0 0
W 0.245440014	0.7763263494041784	-1.0043400199999999	 0 0 0
O 0.259239999	0.006816985755361129	-0.990810011	 0 0 0
O 0.7408099814782765	0.9931829884973767	-0.990760001	 0 0 0
O 0.240760001	0.493183045695716	-0.490810011	 0 0 0
O 0.7591899264782765	0.5068170115026233	-0.490760001	 0 0 0
O 0.7407599714782764	0.006816985755361129	-0.509189989	 0 0 0
O 0.259189989	0.9931829884973767	-0.509239999	 0 0 0
O 0.7592400024782765	0.493183045695716	-1.0091899560000002	 0 0 0
O 0.240810011	0.5068170115026233	-1.0092400320000001	 0 0 0
O 0.498069988	0.261040015	-0.5370100090259075	 0 0 0
O 0.501260052	0.7421900466766158	-0.46298991408553786	 0 0 0
O 0.001929998	0.23896	-1.0370100090259073	 0 0 0
O 0.99873998	0.7578100086766157	-0.9629900106371085	 0 0 0
O 0.501930012	0.261040015	-0.9629900106371085	 0 0 0
O 0.49873998	0.7421900466766158	-1.0370100090259073	 0 0 0
O 0.998069988	0.23896	-0.46298991408553786	 0 0 0
O 0.001260012	0.7578100086766157	-0.5370100090259075	 0 0 0
O 0.7129899276072613	0.242190004	-0.25126004152172343	 0 0 0
O 0.28700997950418394	0.7389600746766157	-0.751930012	 0 0 0
O 0.7870100994361856	0.257809996	-0.751260052	 0 0 0
O 0.21298997497409247	0.7610399806766158	-0.25193002752172344	 0 0 0
O 0.28700997950418394	0.242190004	-1.2487400095217234	 0 0 0
O 0.7129899276072613	0.7389600746766157	-0.748069988	 0 0 0
O 0.21298997497409247	0.257809996	-0.7487399800000001	 0 0 0
O 0.7870100994361856	0.7610399806766158	-1.2480700175217236	 0 0 0

K_POINTS automatic
6 6 6 0 0 0
