# Phonon frequency and phonon lifetime in meV 
# Q-point  Mode   Phonon freq (meV)   Phonon linewidth (meV)
        1     1     -0.10220201E+02      0.0000000000E+00
        1     2     -0.10220201E+02      0.0000000000E+00
        1     3     -0.59612373E+01      0.0000000000E+00
        1     4     -0.18764279E-02      0.0000000000E+00
        1     5     -0.18764278E-02      0.0000000000E+00
        1     6     -0.97007314E-03      0.0000000000E+00
        1     7      0.16413165E+02      0.0000000000E+00
        1     8      0.30539582E+02      0.0000000000E+00
        1     9      0.30633161E+02      0.0000000000E+00
        1    10      0.30633161E+02      0.0000000000E+00
        1    11      0.31354200E+02      0.0000000000E+00
        1    12      0.31354200E+02      0.0000000000E+00
        1    13      0.38649424E+02      0.0000000000E+00
        1    14      0.38649424E+02      0.0000000000E+00
        1    15      0.39413107E+02      0.0000000000E+00
        1    16      0.45368696E+02      0.0000000000E+00
        1    17      0.45368696E+02      0.0000000000E+00
        1    18      0.56618472E+02      0.0000000000E+00
        1    19      0.72426742E+02      0.0000000000E+00
        1    20      0.76828198E+02      0.0000000000E+00
        1    21      0.76828198E+02      0.0000000000E+00
        1    22      0.96656316E+02      0.0000000000E+00
        1    23      0.97257063E+02      0.0000000000E+00
        1    24      0.13038264E+03      0.0000000000E+00
        2     1     -0.10215528E+02      0.0000000000E+00
        2     2     -0.10215528E+02      0.0000000000E+00
        2     3     -0.59614549E+01      0.0000000000E+00
        2     4      0.16724459E+00      0.0000000000E+00
        2     5      0.16724459E+00      0.0000000000E+00
        2     6      0.32518594E+00      0.0000000000E+00
        2     7      0.16418182E+02      0.6566373703E-05
        2     8      0.30539768E+02      0.3950652130E-06
        2     9      0.30621318E+02      0.6020382088E-06
        2    10      0.30621318E+02      0.6020382088E-06
        2    11      0.31361141E+02      0.2592855693E-06
        2    12      0.31361141E+02      0.2592855693E-06
        2    13      0.38649864E+02      0.1038166415E-07
        2    14      0.38649864E+02      0.1038166415E-07
        2    15      0.39419072E+02      0.9053562309E-06
        2    16      0.45371877E+02      0.2748346485E-06
        2    17      0.45371877E+02      0.2748346485E-06
        2    18      0.56618363E+02      0.4141801657E-09
        2    19      0.72425498E+02      0.7259178940E-10
        2    20      0.76827643E+02      0.2302586848E-10
        2    21      0.76827643E+02      0.2302586848E-10
        2    22      0.96653983E+02      0.5132976840E-11
        2    23      0.97279546E+02      0.2555619400E-11
        2    24      0.13038352E+03      0.3256933292E-18
        3     1     -0.10201519E+02      0.0000000000E+00
        3     2     -0.10201519E+02      0.0000000000E+00
        3     3     -0.59621079E+01      0.0000000000E+00
        3     4      0.33479235E+00      0.0000000000E+00
        3     5      0.33479235E+00      0.0000000000E+00
        3     6      0.65085231E+00      0.8325591881E-04
        3     7      0.16433210E+02      0.1792062970E-04
        3     8      0.30540326E+02      0.4334552712E-05
        3     9      0.30586952E+02      0.2213869592E-05
        3    10      0.30586952E+02      0.2213869592E-05
        3    11      0.31380823E+02      0.5304077926E-06
        3    12      0.31380823E+02      0.5304077926E-06
        3    13      0.38651177E+02      0.5815014580E-07
        3    14      0.38651177E+02      0.5815014580E-07
        3    15      0.39436927E+02      0.8624705487E-05
        3    16      0.45381405E+02      0.6494728134E-06
        3    17      0.45381405E+02      0.6494728134E-06
        3    18      0.56618036E+02      0.2708481458E-08
        3    19      0.72421768E+02      0.3458919608E-09
        3    20      0.76825976E+02     -0.3498466534E-09
        3    21      0.76825976E+02     -0.3498466534E-09
        3    22      0.96649130E+02      0.4640414963E-10
        3    23      0.97344784E+02      0.2152112936E-10
        3    24      0.13038617E+03      0.2262478461E-17
        4     1     -0.10178208E+02      0.0000000000E+00
        4     2     -0.10178208E+02      0.0000000000E+00
        4     3     -0.59631957E+01      0.0000000000E+00
        4     4      0.50291280E+00      0.0000000000E+00
        4     5      0.50291280E+00      0.0000000000E+00
        4     6      0.97746164E+00      0.1273551935E-03
        4     7      0.16458181E+02      0.3635824636E-04
        4     8      0.30532856E+02      0.5584720207E-05
        4     9      0.30532856E+02      0.5584720207E-05
        4    10      0.30541254E+02      0.5584720207E-05
        4    11      0.31410518E+02      0.1231291177E-05
        4    12      0.31410518E+02      0.1231291177E-05
        4    13      0.38653344E+02      0.1553748704E-06
        4    14      0.38653344E+02      0.1553748704E-06
        4    15      0.39466549E+02      0.1884595078E-04
        4    16      0.45397239E+02      0.6798470003E-06
        4    17      0.45397239E+02      0.6798470003E-06
        4    18      0.56617491E+02      0.6626742513E-08
        4    19      0.72415554E+02      0.1134646107E-08
        4    20      0.76823200E+02     -0.7999011485E-09
        4    21      0.76823200E+02     -0.7999011485E-09
        4    22      0.96646359E+02      0.1145839322E-09
        4    23      0.97447987E+02      0.4116700199E-10
        4    24      0.13039057E+03      0.6531791214E-17
        5     1     -0.10145650E+02      0.0000000000E+00
        5     2     -0.10145650E+02      0.0000000000E+00
        5     3     -0.59647180E+01      0.0000000000E+00
        5     4      0.67190020E+00      0.1745192732E-03
        5     5      0.67190020E+00      0.1745192732E-03
        5     6      0.13054539E+01      0.1748466124E-03
        5     7      0.16492983E+02      0.6796136187E-04
        5     8      0.30462151E+02      0.5151324791E-05
        5     9      0.30462151E+02      0.5151324791E-05
        5    10      0.30542548E+02      0.2035979931E-04
        5    11      0.31447207E+02      0.4498414517E-05
        5    12      0.31447207E+02      0.4498414517E-05
        5    13      0.38656333E+02      0.4374375632E-06
        5    14      0.38656333E+02      0.4374375632E-06
        5    15      0.39507736E+02      0.3276561792E-04
        5    16      0.45419309E+02      0.7320353086E-06
        5    17      0.45419309E+02      0.7320353086E-06
        5    18      0.56616729E+02      0.1291480782E-07
        5    19      0.72406858E+02      0.8986300682E-08
        5    20      0.76819317E+02      0.5564265616E-08
        5    21      0.76819317E+02      0.5564265616E-08
        5    22      0.96649874E+02      0.2172383277E-09
        5    23      0.97584635E+02      0.6568855423E-10
        5    24      0.13039675E+03      0.1467508672E-16
        6     1     -0.10103925E+02      0.0000000000E+00
        6     2     -0.10103925E+02      0.0000000000E+00
        6     3     -0.59666739E+01      0.0000000000E+00
        6     4      0.84205083E+00      0.2300894973E-03
        6     5      0.84205083E+00      0.2300894973E-03
        6     6      0.16352318E+01      0.2231360533E-03
        6     7      0.16537464E+02      0.1049165811E-03
        6     8      0.30377450E+02      0.7857084359E-05
        6     9      0.30377450E+02      0.7857084359E-05
        6    10      0.30544205E+02      0.3430970587E-04
        6    11      0.31488423E+02      0.7348348698E-05
        6    12      0.31488423E+02      0.7348348698E-05
        6    13      0.38660102E+02      0.7413947308E-06
        6    14      0.38660102E+02      0.7413947308E-06
        6    15      0.39560210E+02      0.5004294360E-04
        6    16      0.45447518E+02      0.7789234295E-06
        6    17      0.45447518E+02      0.7789234295E-06
        6    18      0.56615750E+02      0.2185014562E-07
        6    19      0.72395684E+02      0.1562437000E-07
        6    20      0.76814331E+02      0.8491603115E-08
        6    21      0.76814331E+02      0.8491603115E-08
        6    22      0.96662396E+02      0.3536957587E-09
        6    23      0.97751570E+02      0.9580446673E-10
        6    24      0.13040469E+03      0.2827779083E-16
        7     1     -0.10053138E+02      0.0000000000E+00
        7     2     -0.10053138E+02      0.0000000000E+00
        7     3     -0.59690627E+01      0.0000000000E+00
        7     4      0.10136658E+01      0.3120791641E-03
        7     5      0.10136658E+01      0.3120791641E-03
        7     6      0.19671505E+01      0.3104573560E-03
        7     7      0.16591433E+02      0.1698168419E-03
        7     8      0.30280652E+02      0.1238984469E-04
        7     9      0.30280652E+02      0.1238984469E-04
        7    10      0.30546218E+02      0.6032974766E-04
        7    11      0.31532446E+02      0.1387515618E-04
        7    12      0.31532446E+02      0.1387515618E-04
        7    13      0.38664601E+02      0.1234107005E-05
        7    14      0.38664601E+02      0.1234107005E-05
        7    15      0.39623620E+02      0.7659099926E-04
        7    16      0.45481743E+02      0.9177261041E-06
        7    17      0.45481743E+02      0.9177261041E-06
        7    18      0.56614555E+02      0.3594484869E-07
        7    19      0.72382039E+02      0.2469247564E-07
        7    20      0.76808246E+02      0.1131431019E-07
        7    21      0.76808246E+02      0.1131431019E-07
        7    22      0.96685339E+02      0.6300388754E-09
        7    23      0.97946819E+02      0.1336478909E-09
        7    24      0.13041440E+03      0.6082090534E-16
        8     1     -0.99934211E+01      0.0000000000E+00
        8     2     -0.99934211E+01      0.0000000000E+00
        8     3     -0.59718830E+01      0.0000000000E+00
        8     4      0.11870524E+01      0.3031474256E-03
        8     5      0.11870524E+01      0.3031474256E-03
        8     6      0.23015095E+01      0.3514255315E-03
        8     7      0.16654666E+02      0.2228490999E-03
        8     8      0.30173058E+02      0.1651720889E-04
        8     9      0.30173058E+02      0.1651720889E-04
        8    10      0.30548580E+02      0.8216184972E-04
        8    11      0.31578187E+02      0.1666336684E-04
        8    12      0.31578187E+02      0.1666336684E-04
        8    13      0.38669769E+02      0.1736367660E-05
        8    14      0.38669769E+02      0.1736367660E-05
        8    15      0.39697546E+02      0.8069330065E-04
        8    16      0.45521841E+02      0.7012517664E-06
        8    17      0.45521841E+02      0.7012517664E-06
        8    18      0.56613145E+02      0.4656920906E-07
        8    19      0.72365929E+02      0.2775529819E-07
        8    20      0.76801069E+02      0.1195685515E-07
        8    21      0.76801069E+02      0.1195685515E-07
        8    22      0.96719264E+02      0.8498683199E-09
        8    23      0.98169143E+02      0.1063816295E-09
        8    24      0.13042589E+03      0.9835094755E-16
        9     1     -0.99249370E+01      0.0000000000E+00
        9     2     -0.99249370E+01      0.0000000000E+00
        9     3     -0.59751336E+01      0.0000000000E+00
        9     4      0.13625244E+01      0.2681470996E-03
        9     5      0.13625244E+01      0.2681470996E-03
        9     6      0.26385462E+01      0.4336319904E-03
        9     7      0.16726912E+02      0.2749315811E-03
        9     8      0.30055543E+02      0.2202209426E-04
        9     9      0.30055543E+02      0.2202209426E-04
        9    10      0.30551283E+02      0.9769450942E-04
        9    11      0.31625009E+02      0.1678683956E-04
        9    12      0.31625009E+02      0.1678683956E-04
        9    13      0.38675543E+02      0.2239603649E-05
        9    14      0.38675543E+02      0.2239603649E-05
        9    15      0.39781511E+02      0.1040214254E-03
        9    16      0.45567643E+02      0.5170951562E-06
        9    17      0.45567643E+02      0.5170951562E-06
        9    18      0.56611522E+02      0.6438764430E-07
        9    19      0.72347362E+02      0.3883547457E-07
        9    20      0.76792806E+02      0.1040522866E-07
        9    21      0.76792806E+02      0.1040522866E-07
        9    22      0.96764228E+02      0.1093282924E-08
        9    23      0.98417694E+02      0.1489228559E-09
        9    24      0.13043915E+03      0.1548911973E-15
       10     1     -0.98478812E+01      0.0000000000E+00
       10     2     -0.98478812E+01      0.0000000000E+00
       10     3     -0.59788128E+01      0.0000000000E+00
       10     4      0.15404025E+01      0.2487049796E-03
       10     5      0.15404025E+01      0.2487049796E-03
       10     6      0.29784308E+01      0.6076353370E-03
       10     7      0.16807893E+02      0.3693466264E-03
       10     8      0.29928710E+02      0.2944049632E-04
       10     9      0.29928710E+02      0.2944049632E-04
       10    10      0.30554318E+02      0.1338374833E-03
       10    11      0.31672574E+02      0.2630780794E-04
       10    12      0.31672574E+02      0.2630780794E-04
       10    13      0.38681857E+02      0.3237680823E-05
       10    14      0.38681857E+02      0.3237680823E-05
       10    15      0.39874978E+02      0.1756867966E-03
       10    16      0.45618962E+02      0.6045453209E-06
       10    17      0.45618962E+02      0.6045453209E-06
       10    18      0.56609686E+02      0.9091259622E-07
       10    19      0.72326347E+02      0.5453562214E-07
       10    20      0.76783465E+02      0.1083255396E-07
       10    21      0.76783465E+02      0.1083255396E-07
       10    22      0.96820003E+02      0.1431174341E-08
       10    23      0.98691800E+02      0.3351155860E-09
       10    24      0.13045420E+03      0.2398442024E-15
       11     1     -0.97624858E+01      0.0000000000E+00
       11     2     -0.97624858E+01      0.0000000000E+00
       11     3     -0.59829188E+01      0.0000000000E+00
       11     4      0.17210139E+01      0.4882099012E-03
       11     5      0.17210139E+01      0.4882099012E-03
       11     6      0.33212643E+01      0.7431844991E-03
       11     7      0.16897315E+02      0.5752977838E-03
       11     8      0.29792991E+02      0.3855407619E-04
       11     9      0.29792991E+02      0.3855407619E-04
       11    10      0.30557673E+02      0.2366304804E-03
       11    11      0.31720732E+02      0.4713695645E-04
       11    12      0.31720732E+02      0.4713695645E-04
       11    13      0.38688643E+02      0.5057852450E-05
       11    14      0.38688643E+02      0.5057852450E-05
       11    15      0.39977366E+02      0.2288613954E-03
       11    16      0.45675596E+02      0.7729619107E-06
       11    17      0.45675596E+02      0.7729619107E-06
       11    18      0.56607639E+02      0.1238257462E-06
       11    19      0.72302895E+02      0.7731819179E-07
       11    20      0.76773055E+02      0.1265095378E-07
       11    21      0.76773055E+02      0.1265095378E-07
       11    22      0.96886203E+02      0.2027617161E-08
       11    23      0.98990837E+02      0.4488798515E-09
       11    24      0.13047103E+03      0.3926024879E-15
       12     1     -0.96690233E+01      0.0000000000E+00
       12     2     -0.96690233E+01      0.0000000000E+00
       12     3     -0.59874495E+01      0.0000000000E+00
       12     4      0.19046911E+01     -0.9639871128E-04
       12     5      0.19046911E+01     -0.9639871128E-04
       12     6      0.36670775E+01      0.9972611379E-03
       12     7      0.16994871E+02      0.8907465548E-03
       12     8      0.29648715E+02      0.5118784524E-04
       12     9      0.29648715E+02      0.5118784524E-04
       12    10      0.30561338E+02      0.3444483781E-03
       12    11      0.31769451E+02      0.4863006381E-04
       12    12      0.31769451E+02      0.4863006381E-04
       12    13      0.38695834E+02      0.7023245113E-05
       12    14      0.38695834E+02      0.7023245113E-05
       12    15      0.40088050E+02      0.2999263104E-03
       12    16      0.45737325E+02      0.1079251299E-05
       12    17      0.45737325E+02      0.1079251299E-05
       12    18      0.56605383E+02      0.2832999279E-06
       12    19      0.72277019E+02      0.9962910840E-07
       12    20      0.76761586E+02     -0.3553675543E-08
       12    21      0.76761586E+02     -0.3553675543E-08
       12    22      0.96962358E+02      0.3019230341E-08
       12    23      0.99314169E+02      0.5374871110E-09
       12    24      0.13048966E+03      0.6631284321E-15
       13     1     -0.95678115E+01      0.0000000000E+00
       13     2     -0.95678115E+01      0.0000000000E+00
       13     3     -0.59924027E+01      0.0000000000E+00
       13     4      0.20917701E+01     -0.3334494530E-03
       13     5      0.20917701E+01     -0.3334494530E-03
       13     6      0.40158319E+01      0.1180994511E-02
       13     7      0.17100243E+02      0.1071533585E-02
       13     8      0.29496154E+02      0.6114955780E-04
       13     9      0.29496154E+02      0.6114955780E-04
       13    10      0.30565298E+02      0.4418789365E-03
       13    11      0.31818768E+02      0.7399380191E-04
       13    12      0.31818768E+02      0.7399380191E-04
       13    13      0.38703366E+02      0.9432339201E-05
       13    14      0.38703366E+02      0.9432339201E-05
       13    15      0.40206374E+02      0.4246691227E-03
       13    16      0.45803918E+02      0.1292055884E-05
       13    17      0.45803918E+02      0.1292055884E-05
       13    18      0.56602921E+02      0.3508987002E-06
       13    19      0.72248731E+02      0.1265250385E-06
       13    20      0.76749068E+02     -0.6273243915E-08
       13    21      0.76749068E+02     -0.6273243915E-08
       13    22      0.97047958E+02      0.3491891084E-08
       13    23      0.99661106E+02      0.9474844916E-09
       13    24      0.13051008E+03      0.9154270014E-15
       14     1     -0.94592176E+01      0.0000000000E+00
       14     2     -0.94592176E+01      0.0000000000E+00
       14     3     -0.59977756E+01      0.0000000000E+00
       14     4      0.22825870E+01     -0.6632956616E-03
       14     5      0.22825870E+01     -0.6632956616E-03
       14     6      0.43674221E+01      0.1366638942E-02
       14     7      0.17213113E+02      0.1382185136E-02
       14     8      0.29335545E+02      0.7450033294E-04
       14     9      0.29335545E+02      0.7450033294E-04
       14    10      0.30569541E+02      0.5984080651E-03
       14    11      0.31868760E+02      0.1060658089E-03
       14    12      0.31868760E+02      0.1060658089E-03
       14    13      0.38711178E+02      0.1241347098E-04
       14    14      0.38711178E+02      0.1241347098E-04
       14    15      0.40331655E+02      0.4923336401E-03
       14    16      0.45875134E+02      0.1826282877E-05
       14    17      0.45875134E+02      0.1826282877E-05
       14    18      0.56600253E+02      0.8089233340E-06
       14    19      0.72218046E+02      0.1606363857E-06
       14    20      0.76735513E+02     -0.9188937454E-08
       14    21      0.76735513E+02     -0.9188937454E-08
       14    22      0.97142469E+02      0.4518815069E-08
       14    23      0.10003089E+03      0.1133359146E-08
       14    24      0.13053230E+03      0.1238293326E-14
       15     1     -0.93436633E+01      0.0000000000E+00
       15     2     -0.93436633E+01      0.0000000000E+00
       15     3     -0.60035656E+01      0.0000000000E+00
       15     4      0.24774737E+01     -0.1157320812E-02
       15     5      0.24774737E+01     -0.1157320812E-02
       15     6      0.47216796E+01      0.1459006208E-02
       15     7      0.17333161E+02      0.1581692661E-02
       15     8      0.29167111E+02      0.8554967971E-04
       15     9      0.29167111E+02      0.8554967971E-04
       15    10      0.30574051E+02      0.7412518832E-03
       15    11      0.31919522E+02      0.1452987532E-03
       15    12      0.31919522E+02      0.1452987532E-03
       15    13      0.38719218E+02      0.1592558635E-04
       15    14      0.38719218E+02      0.1592558635E-04
       15    15      0.40463191E+02      0.5449996233E-03
       15    16      0.45950723E+02      0.2101040489E-05
       15    17      0.45950723E+02      0.2101040489E-05
       15    18      0.56597382E+02      0.1013734540E-05
       15    19      0.72184981E+02      0.1975869622E-06
       15    20      0.76720936E+02     -0.1242954521E-07
       15    21      0.76720936E+02     -0.1242954521E-07
       15    22      0.97245355E+02      0.5060191368E-08
       15    23      0.10042269E+03      0.1323360485E-08
       15    24      0.13055633E+03      0.1618921912E-14
       16     1     -0.92216293E+01      0.0000000000E+00
       16     2     -0.92216293E+01      0.0000000000E+00
       16     3     -0.60097694E+01      0.0000000000E+00
       16     4      0.26767520E+01     -0.1186081029E-02
       16     5      0.26767520E+01     -0.1186081029E-02
       16     6      0.50783772E+01      0.1966775012E-02
       16     7      0.17460073E+02      0.2241071708E-02
       16     8      0.28991067E+02      0.1217175955E-03
       16     9      0.28991067E+02      0.1217175955E-03
       16    10      0.30578812E+02      0.1308820267E-02
       16    11      0.31971156E+02      0.2705706035E-03
       16    12      0.31971156E+02      0.2705706035E-03
       16    13      0.38727437E+02      0.2660759797E-04
       16    14      0.38727437E+02      0.2660759797E-04
       16    15      0.40600269E+02      0.7635946673E-03
       16    16      0.46030432E+02      0.3120552168E-05
       16    17      0.46030432E+02      0.3120552168E-05
       16    18      0.56594311E+02      0.1291591394E-05
       16    19      0.72149553E+02      0.4101953309E-06
       16    20      0.76705348E+02     -0.1174436375E-07
       16    21      0.76705348E+02     -0.1174436375E-07
       16    22      0.97356077E+02      0.7070152664E-08
       16    23      0.10083559E+03      0.1692677761E-08
       16    24      0.13058215E+03      0.2163184461E-14
       17     1     -0.90936594E+01      0.0000000000E+00
       17     2     -0.90936594E+01      0.0000000000E+00
       17     3     -0.60163836E+01      0.0000000000E+00
       17     4      0.28807258E+01     -0.2272428598E-02
       17     5      0.28807258E+01     -0.2272428598E-02
       17     6      0.54372344E+01      0.2069304873E-02
       17     7      0.17593545E+02      0.2461705082E-02
       17     8      0.28807626E+02      0.8701101446E-04
       17     9      0.28807626E+02      0.8701101446E-04
       17    10      0.30583808E+02      0.1564646469E-02
       17    11      0.32023762E+02      0.2999137911E-03
       17    12      0.32023762E+02      0.2999137911E-03
       17    13      0.38735795E+02      0.2929629452E-04
       17    14      0.38735795E+02      0.2929629452E-04
       17    15      0.40742168E+02      0.7473512581E-03
       17    16      0.46114002E+02      0.3079346259E-05
       17    17      0.46114002E+02      0.3079346259E-05
       17    18      0.56591042E+02      0.1573549824E-05
       17    19      0.72111782E+02      0.4816289527E-06
       17    20      0.76688766E+02     -0.1973742215E-07
       17    21      0.76688766E+02     -0.1973742215E-07
       17    22      0.97474099E+02      0.7650661653E-08
       17    23      0.10126861E+03      0.1796006937E-08
       17    24      0.13060979E+03      0.2644776877E-14
       18     1     -0.89603637E+01      0.0000000000E+00
       18     2     -0.89603637E+01      0.0000000000E+00
       18     3     -0.60234047E+01      0.0000000000E+00
       18     4      0.30896716E+01     -0.3621437821E-02
       18     5      0.30896716E+01     -0.3621437821E-02
       18     6      0.57979230E+01      0.2341772493E-02
       18     7      0.17733280E+02      0.2851978455E-02
       18     8      0.28617001E+02      0.8224379328E-04
       18     9      0.28617001E+02      0.8224379328E-04
       18    10      0.30589020E+02      0.1935218393E-02
       18    11      0.32077435E+02      0.3865983244E-03
       18    12      0.32077435E+02      0.3865983244E-03
       18    13      0.38744259E+02      0.3717531035E-04
       18    14      0.38744259E+02      0.3717531035E-04
       18    15      0.40888170E+02      0.1216311179E-02
       18    16      0.46201175E+02      0.3451988864E-05
       18    17      0.46201175E+02      0.3451988864E-05
       18    18      0.56587578E+02      0.1908429409E-05
       18    19      0.72071688E+02      0.4186735915E-06
       18    20      0.76671205E+02     -0.3552786997E-07
       18    21      0.76671205E+02     -0.3552786997E-07
       18    22      0.97598890E+02      0.8307642998E-08
       18    23      0.10172072E+03      0.2970302584E-08
       18    24      0.13063923E+03      0.3398679318E-14
       19     1     -0.88224199E+01      0.0000000000E+00
       19     2     -0.88224199E+01      0.0000000000E+00
       19     3     -0.60308284E+01      0.0000000000E+00
       19     4      0.33038270E+01     -0.7911941454E-02
       19     5      0.33038270E+01     -0.7911941454E-02
       19     6      0.61600730E+01      0.2770503483E-02
       19     7      0.17878997E+02      0.3447743107E-02
       19     8      0.28419408E+02      0.8993882583E-04
       19     9      0.28419408E+02      0.8993882583E-04
       19    10      0.30594430E+02      0.2471933996E-02
       19    11      0.32132258E+02      0.5258976034E-03
       19    12      0.32132258E+02      0.5258976034E-03
       19    13      0.38752805E+02      0.5001511650E-04
       19    14      0.38752805E+02      0.5001511650E-04
       19    15      0.41037561E+02      0.1396828489E-02
       19    16      0.46291692E+02      0.4389707666E-05
       19    17      0.46291692E+02      0.4389707666E-05
       19    18      0.56583922E+02      0.2697699160E-05
       19    19      0.72029295E+02      0.3457899024E-06
       19    20      0.76652682E+02     -0.9772014501E-07
       19    21      0.76652682E+02     -0.9772014501E-07
       19    22      0.97729926E+02      0.1010516010E-07
       19    23      0.10219081E+03      0.3214327156E-08
       19    24      0.13067047E+03      0.4421092380E-14
       20     1     -0.86805723E+01      0.0000000000E+00
       20     2     -0.86805723E+01      0.0000000000E+00
       20     3     -0.60386507E+01      0.0000000000E+00
       20     4      0.35233778E+01     -0.1046314373E-01
       20     5      0.35233778E+01     -0.1046314373E-01
       20     6      0.65232792E+01      0.2953227769E-02
       20     7      0.18030431E+02      0.3833846338E-02
       20     8      0.28215063E+02      0.1084167829E-03
       20     9      0.28215063E+02      0.1084167829E-03
       20    10      0.30600020E+02      0.2954609632E-02
       20    11      0.32188306E+02      0.6954110572E-03
       20    12      0.32188306E+02      0.6954110572E-03
       20    13      0.38761414E+02      0.6452766597E-04
       20    14      0.38761414E+02      0.6452766597E-04
       20    15      0.41189638E+02      0.2199491319E-02
       20    16      0.46385297E+02      0.6040906967E-05
       20    17      0.46385297E+02      0.6040906967E-05
       20    18      0.56580077E+02      0.3261835048E-05
       20    19      0.71984625E+02      0.4683675329E-06
       20    20      0.76633215E+02     -0.1068668767E-06
       20    21      0.76633215E+02     -0.1068668767E-06
       20    22      0.97866686E+02      0.1109277033E-07
       20    23      0.10267773E+03      0.4941298987E-08
       20    24      0.13070352E+03      0.5426516971E-14
       21     1     -0.85356279E+01      0.0000000000E+00
       21     2     -0.85356279E+01      0.0000000000E+00
       21     3     -0.60468667E+01      0.0000000000E+00
       21     4      0.37484437E+01     -0.1956545208E-01
       21     5      0.37484437E+01     -0.1956545208E-01
       21     6      0.68871070E+01      0.3519546976E-02
       21     7      0.18187333E+02      0.4449226978E-02
       21     8      0.28004184E+02      0.1466606765E-03
       21     9      0.28004184E+02      0.1466606765E-03
       21    10      0.30605768E+02      0.3932223652E-02
       21    11      0.32245638E+02      0.1013024559E-02
       21    12      0.32245638E+02      0.1013024559E-02
       21    13      0.38770077E+02      0.9271794609E-04
       21    14      0.38770077E+02      0.9271794609E-04
       21    15      0.41343713E+02      0.2370950150E-02
       21    16      0.46481736E+02      0.8369367515E-05
       21    17      0.46481736E+02      0.8369367515E-05
       21    18      0.56576047E+02      0.4576938972E-05
       21    19      0.71937706E+02      0.7076865551E-06
       21    20      0.76612822E+02     -0.2418198324E-06
       21    21      0.76612822E+02     -0.2418198324E-06
       21    22      0.98008657E+02      0.1380817329E-07
       21    23      0.10318028E+03      0.5134250776E-08
       21    24      0.13073837E+03      0.7578255035E-14
       22     1     -0.83884489E+01      0.0000000000E+00
       22     2     -0.83884489E+01      0.0000000000E+00
       22     3     -0.60554715E+01      0.0000000000E+00
       22     4      0.39790637E+01     -0.2525270367E-01
       22     5      0.39790637E+01     -0.2525270367E-01
       22     6      0.72510982E+01      0.3719744369E-02
       22     7      0.18349469E+02      0.4670071295E-02
       22     8      0.27786989E+02      0.1370800722E-03
       22     9      0.27786989E+02      0.1370800722E-03
       22    10      0.30611654E+02      0.4503255537E-02
       22    11      0.32304304E+02      0.1177064411E-02