# Phonon frequency and phonon lifetime in meV 
# Q-point  Mode   Phonon freq (meV)   Phonon linewidth (meV)
        1     1     -0.10220201E+02      0.0000000000E+00
        1     2     -0.10220201E+02      0.0000000000E+00
        1     3     -0.59612373E+01      0.0000000000E+00
        1     4     -0.18764279E-02      0.0000000000E+00
        1     5     -0.18764278E-02      0.0000000000E+00
        1     6     -0.97007314E-03      0.0000000000E+00
        1     7      0.16413165E+02      0.0000000000E+00
        1     8      0.30539582E+02      0.0000000000E+00
        1     9      0.30633161E+02      0.0000000000E+00
        1    10      0.30633161E+02      0.0000000000E+00
        1    11      0.31354200E+02      0.0000000000E+00
        1    12      0.31354200E+02      0.0000000000E+00
        1    13      0.38649424E+02      0.0000000000E+00
        1    14      0.38649424E+02      0.0000000000E+00
        1    15      0.39413107E+02      0.0000000000E+00
        1    16      0.45368696E+02      0.0000000000E+00
        1    17      0.45368696E+02      0.0000000000E+00
        1    18      0.56618472E+02      0.0000000000E+00
        1    19      0.72426742E+02      0.0000000000E+00
        1    20      0.76828198E+02      0.0000000000E+00
        1    21      0.76828198E+02      0.0000000000E+00
        1    22      0.96656316E+02      0.0000000000E+00
        1    23      0.97257063E+02      0.0000000000E+00
        1    24      0.13038264E+03      0.0000000000E+00
        2     1     -0.10215528E+02      0.0000000000E+00
        2     2     -0.10215528E+02      0.0000000000E+00
        2     3     -0.59614549E+01      0.0000000000E+00
        2     4      0.16724459E+00      0.0000000000E+00
        2     5      0.16724459E+00      0.0000000000E+00
        2     6      0.32518594E+00      0.0000000000E+00
        2     7      0.16418182E+02      0.6007049815E-05
        2     8      0.30539768E+02      0.1748709210E-06
        2     9      0.30621318E+02      0.9775929858E-06
        2    10      0.30621318E+02      0.9775929858E-06
        2    11      0.31361141E+02      0.3412173450E-06
        2    12      0.31361141E+02      0.3412173450E-06
        2    13      0.38649864E+02      0.1455307107E-07
        2    14      0.38649864E+02      0.1455307107E-07
        2    15      0.39419072E+02      0.9934436057E-06
        2    16      0.45371877E+02      0.3806874836E-06
        2    17      0.45371877E+02      0.3806874836E-06
        2    18      0.56618363E+02      0.4604498708E-09
        2    19      0.72425498E+02      0.9806629929E-09
        2    20      0.76827643E+02      0.4269343305E-10
        2    21      0.76827643E+02      0.4269343305E-10
        2    22      0.96653983E+02      0.6386185298E-11
        2    23      0.97279546E+02      0.2706417330E-11
        2    24      0.13038352E+03      0.3441727059E-18
        3     1     -0.10201519E+02      0.0000000000E+00
        3     2     -0.10201519E+02      0.0000000000E+00
        3     3     -0.59621079E+01      0.0000000000E+00
        3     4      0.33479235E+00      0.0000000000E+00
        3     5      0.33479235E+00      0.0000000000E+00
        3     6      0.65085231E+00      0.5196951133E-04
        3     7      0.16433210E+02      0.1635623410E-04
        3     8      0.30540326E+02      0.1263161597E-06
        3     9      0.30586952E+02      0.1829164980E-05
        3    10      0.30586952E+02      0.1829164980E-05
        3    11      0.31380823E+02      0.1401118466E-05
        3    12      0.31380823E+02      0.1401118466E-05
        3    13      0.38651177E+02      0.6879838561E-07
        3    14      0.38651177E+02      0.6879838561E-07
        3    15      0.39436927E+02      0.3794894870E-05
        3    16      0.45381405E+02      0.5168382707E-06
        3    17      0.45381405E+02      0.5168382707E-06
        3    18      0.56618036E+02      0.3215848387E-08
        3    19      0.72421768E+02      0.5778933939E-08
        3    20      0.76825976E+02     -0.4653433932E-09
        3    21      0.76825976E+02     -0.4653433932E-09
        3    22      0.96649130E+02      0.4320293583E-10
        3    23      0.97344784E+02      0.2087423395E-11
        3    24      0.13038617E+03      0.2473457193E-17
        4     1     -0.10178208E+02      0.0000000000E+00
        4     2     -0.10178208E+02      0.0000000000E+00
        4     3     -0.59631957E+01      0.0000000000E+00
        4     4      0.50291280E+00      0.0000000000E+00
        4     5      0.50291280E+00      0.0000000000E+00
        4     6      0.97746164E+00      0.7607129635E-04
        4     7      0.16458181E+02      0.2455331140E-04
        4     8      0.30532856E+02      0.1056705889E-05
        4     9      0.30532856E+02      0.1056705889E-05
        4    10      0.30541254E+02      0.1056705889E-05
        4    11      0.31410518E+02      0.1631725661E-05
        4    12      0.31410518E+02      0.1631725661E-05
        4    13      0.38653344E+02      0.9841718654E-07
        4    14      0.38653344E+02      0.9841718654E-07
        4    15      0.39466549E+02      0.5926486892E-05
        4    16      0.45397239E+02      0.4086771007E-06
        4    17      0.45397239E+02      0.4086771007E-06
        4    18      0.56617491E+02      0.5206662461E-08
        4    19      0.72415554E+02      0.1352395356E-07
        4    20      0.76823200E+02     -0.1210657393E-08
        4    21      0.76823200E+02     -0.1210657393E-08
        4    22      0.96646359E+02      0.1023567413E-09
        4    23      0.97447987E+02     -0.1456099066E-10
        4    24      0.13039057E+03      0.5840133125E-17
        5     1     -0.10145650E+02      0.0000000000E+00
        5     2     -0.10145650E+02      0.0000000000E+00
        5     3     -0.59647180E+01      0.0000000000E+00
        5     4      0.67190020E+00     -0.3608414451E-04
        5     5      0.67190020E+00     -0.3608414451E-04
        5     6      0.13054539E+01      0.1782956613E-03
        5     7      0.16492983E+02      0.4281227395E-04
        5     8      0.30462151E+02      0.4282082736E-05
        5     9      0.30462151E+02      0.4282082736E-05
        5    10      0.30542548E+02     -0.3358564860E-05
        5    11      0.31447207E+02      0.2455418638E-05
        5    12      0.31447207E+02      0.2455418638E-05
        5    13      0.38656333E+02      0.1857590528E-06
        5    14      0.38656333E+02      0.1857590528E-06
        5    15      0.39507736E+02      0.2174631420E-04
        5    16      0.45419309E+02      0.4839211910E-06
        5    17      0.45419309E+02      0.4839211910E-06
        5    18      0.56616729E+02      0.9918001161E-08
        5    19      0.72406858E+02      0.2484252762E-07
        5    20      0.76819317E+02     -0.2341760323E-08
        5    21      0.76819317E+02     -0.2341760323E-08
        5    22      0.96649874E+02      0.1968840312E-09
        5    23      0.97584635E+02     -0.5992200517E-12
        5    24      0.13039675E+03      0.1311185450E-16
        6     1     -0.10103925E+02      0.0000000000E+00
        6     2     -0.10103925E+02      0.0000000000E+00
        6     3     -0.59666739E+01      0.0000000000E+00
        6     4      0.84205083E+00     -0.3349649979E-04
        6     5      0.84205083E+00     -0.3349649979E-04
        6     6      0.16352318E+01      0.2198552176E-03
        6     7      0.16537464E+02      0.6816924787E-04
        6     8      0.30377450E+02      0.6416006648E-05
        6     9      0.30377450E+02      0.6416006648E-05
        6    10      0.30544205E+02     -0.3497141804E-05
        6    11      0.31488423E+02      0.4516167846E-05
        6    12      0.31488423E+02      0.4516167846E-05
        6    13      0.38660102E+02      0.3745931792E-06
        6    14      0.38660102E+02      0.3745931792E-06
        6    15      0.39560210E+02      0.2473832033E-04
        6    16      0.45447518E+02      0.5172083992E-06
        6    17      0.45447518E+02      0.5172083992E-06
        6    18      0.56615750E+02      0.1101870760E-07
        6    19      0.72395684E+02      0.4108819108E-07
        6    20      0.76814331E+02     -0.3622090356E-08
        6    21      0.76814331E+02     -0.3622090356E-08
        6    22      0.96662396E+02      0.3225490915E-09
        6    23      0.97751570E+02     -0.3719637104E-10
        6    24      0.13040469E+03      0.2369707552E-16
        7     1     -0.10053138E+02      0.0000000000E+00
        7     2     -0.10053138E+02      0.0000000000E+00
        7     3     -0.59690627E+01      0.0000000000E+00
        7     4      0.10136658E+01     -0.2931994347E-04
        7     5      0.10136658E+01     -0.2931994347E-04
        7     6      0.19671505E+01      0.2581518230E-03
        7     7      0.16591433E+02      0.8850396775E-04
        7     8      0.30280652E+02      0.9030074420E-05
        7     9      0.30280652E+02      0.9030074420E-05
        7    10      0.30546218E+02     -0.5303857576E-05
        7    11      0.31532446E+02      0.6296056501E-05
        7    12      0.31532446E+02      0.6296056501E-05
        7    13      0.38664601E+02      0.6321197766E-06
        7    14      0.38664601E+02      0.6321197766E-06
        7    15      0.39623620E+02      0.2182333039E-04
        7    16      0.45481743E+02      0.4633741732E-06
        7    17      0.45481743E+02      0.4633741732E-06
        7    18      0.56614555E+02      0.1525219106E-07
        7    19      0.72382039E+02      0.6223638741E-07
        7    20      0.76808246E+02     -0.5125372689E-08
        7    21      0.76808246E+02     -0.5125372689E-08
        7    22      0.96685339E+02      0.4788068836E-09
        7    23      0.97946819E+02     -0.9672112344E-10
        7    24      0.13041440E+03      0.3923500504E-16
        8     1     -0.99934211E+01      0.0000000000E+00
        8     2     -0.99934211E+01      0.0000000000E+00
        8     3     -0.59718830E+01      0.0000000000E+00
        8     4      0.11870524E+01     -0.1094300579E-04
        8     5      0.11870524E+01     -0.1094300579E-04
        8     6      0.23015095E+01      0.3816201296E-03
        8     7      0.16654666E+02      0.1412999658E-03
        8     8      0.30173058E+02      0.1434028040E-04
        8     9      0.30173058E+02      0.1434028040E-04
        8    10      0.30548580E+02      0.7665762144E-05
        8    11      0.31578187E+02      0.1070866578E-04
        8    12      0.31578187E+02      0.1070866578E-04
        8    13      0.38669769E+02      0.1145252939E-05
        8    14      0.38669769E+02      0.1145252939E-05
        8    15      0.39697546E+02      0.3621909881E-04
        8    16      0.45521841E+02      0.6544075454E-06
        8    17      0.45521841E+02      0.6544075454E-06
        8    18      0.56613145E+02      0.3770409791E-07
        8    19      0.72365929E+02      0.9005422827E-07
        8    20      0.76801069E+02     -0.6836450334E-08
        8    21      0.76801069E+02     -0.6836450334E-08
        8    22      0.96719264E+02      0.7471431642E-09
        8    23      0.98169143E+02     -0.1173897384E-09
        8    24      0.13042589E+03      0.6708956727E-16
        9     1     -0.99249370E+01      0.0000000000E+00
        9     2     -0.99249370E+01      0.0000000000E+00
        9     3     -0.59751336E+01      0.0000000000E+00
        9     4      0.13625244E+01     -0.2271950205E-03
        9     5      0.13625244E+01     -0.2271950205E-03
        9     6      0.26385462E+01      0.4497956915E-03
        9     7      0.16726912E+02      0.2077006963E-03
        9     8      0.30055543E+02      0.1870047861E-04
        9     9      0.30055543E+02      0.1870047861E-04
        9    10      0.30551283E+02      0.1731594253E-04
        9    11      0.31625009E+02      0.3008742865E-05
        9    12      0.31625009E+02      0.3008742865E-05
        9    13      0.38675543E+02      0.1394215600E-05
        9    14      0.38675543E+02      0.1394215600E-05
        9    15      0.39781511E+02      0.4113138280E-04
        9    16      0.45567643E+02      0.6568574459E-06
        9    17      0.45567643E+02      0.6568574459E-06
        9    18      0.56611522E+02      0.6271591766E-07
        9    19      0.72347362E+02      0.1185854492E-06
        9    20      0.76792806E+02     -0.1498122540E-07
        9    21      0.76792806E+02     -0.1498122540E-07
        9    22      0.96764228E+02      0.9906950941E-09
        9    23      0.98417694E+02     -0.1204745983E-09
        9    24      0.13043915E+03      0.9496730592E-16
       10     1     -0.98478812E+01      0.0000000000E+00
       10     2     -0.98478812E+01      0.0000000000E+00
       10     3     -0.59788128E+01      0.0000000000E+00
       10     4      0.15404025E+01     -0.1760141720E-03
       10     5      0.15404025E+01     -0.1760141720E-03
       10     6      0.29784308E+01      0.5763039216E-03
       10     7      0.16807893E+02      0.3347207684E-03
       10     8      0.29928710E+02      0.2887773710E-04
       10     9      0.29928710E+02      0.2887773710E-04
       10    10      0.30554318E+02      0.5354052308E-04
       10    11      0.31672574E+02      0.1986223029E-04
       10    12      0.31672574E+02      0.1986223029E-04
       10    13      0.38681857E+02      0.3053317270E-05
       10    14      0.38681857E+02      0.3053317270E-05
       10    15      0.39874978E+02      0.4851455615E-04
       10    16      0.45618962E+02      0.9194687905E-06
       10    17      0.45618962E+02      0.9194687905E-06
       10    18      0.56609686E+02      0.9696981579E-07
       10    19      0.72326347E+02      0.1543360583E-06
       10    20      0.76783465E+02     -0.1967208262E-07
       10    21      0.76783465E+02     -0.1967208262E-07
       10    22      0.96820003E+02      0.1478591193E-08
       10    23      0.98691800E+02     -0.1219175547E-09
       10    24      0.13045420E+03      0.1449626781E-15
       11     1     -0.97624858E+01      0.0000000000E+00
       11     2     -0.97624858E+01      0.0000000000E+00
       11     3     -0.59829188E+01      0.0000000000E+00
       11     4      0.17210139E+01     -0.1380662222E-05
       11     5      0.17210139E+01     -0.1380662222E-05
       11     6      0.33212643E+01      0.8585142799E-03
       11     7      0.16897315E+02      0.6357115837E-03
       11     8      0.29792991E+02      0.4637503608E-04
       11     9      0.29792991E+02      0.4637503608E-04
       11    10      0.30557673E+02      0.1550890683E-03
       11    11      0.31720732E+02      0.5594925992E-04
       11    12      0.31720732E+02      0.5594925992E-04
       11    13      0.38688643E+02      0.5894924999E-05
       11    14      0.38688643E+02      0.5894924999E-05
       11    15      0.39977366E+02      0.9938657552E-04
       11    16      0.45675596E+02      0.1748542579E-05
       11    17      0.45675596E+02      0.1748542579E-05
       11    18      0.56607639E+02      0.2113267380E-06
       11    19      0.72302895E+02      0.2040440431E-06
       11    20      0.76773055E+02     -0.2066044516E-07
       11    21      0.76773055E+02     -0.2066044516E-07
       11    22      0.96886203E+02      0.2609188614E-08
       11    23      0.98990837E+02     -0.6312779869E-10
       11    24      0.13047103E+03      0.3168252341E-15
       12     1     -0.96690233E+01      0.0000000000E+00
       12     2     -0.96690233E+01      0.0000000000E+00
       12     3     -0.59874495E+01      0.0000000000E+00
       12     4      0.19046911E+01     -0.2425879133E-03
       12     5      0.19046911E+01     -0.2425879133E-03
       12     6      0.36670775E+01      0.9903654567E-03
       12     7      0.16994871E+02      0.8090824870E-03
       12     8      0.29648715E+02      0.5821273759E-04
       12     9      0.29648715E+02      0.5821273759E-04
       12    10      0.30561338E+02      0.2214552740E-03
       12    11      0.31769451E+02      0.7673224041E-04
       12    12      0.31769451E+02      0.7673224041E-04
       12    13      0.38695834E+02      0.8500494118E-05
       12    14      0.38695834E+02      0.8500494118E-05
       12    15      0.40088050E+02      0.2861999435E-04
       12    16      0.45737325E+02      0.1864170140E-05
       12    17      0.45737325E+02      0.1864170140E-05
       12    18      0.56605383E+02      0.2839862305E-06
       12    19      0.72277019E+02      0.2473882579E-06
       12    20      0.76761586E+02     -0.3086465969E-07
       12    21      0.76761586E+02     -0.3086465969E-07
       12    22      0.96962358E+02      0.3336394760E-08
       12    23      0.99314169E+02     -0.2398739170E-09
       12    24      0.13048966E+03      0.4602565047E-15
       13     1     -0.95678115E+01      0.0000000000E+00
       13     2     -0.95678115E+01      0.0000000000E+00
       13     3     -0.59924027E+01      0.0000000000E+00
       13     4      0.20917701E+01     -0.8316196831E-03
       13     5      0.20917701E+01     -0.8316196831E-03
       13     6      0.40158319E+01      0.1106727574E-02
       13     7      0.17100243E+02      0.9790347455E-03
       13     8      0.29496154E+02      0.6192887954E-04
       13     9      0.29496154E+02      0.6192887954E-04
       13    10      0.30565298E+02      0.2922363291E-03
       13    11      0.31818768E+02      0.9742089699E-04
       13    12      0.31818768E+02      0.9742089699E-04
       13    13      0.38703366E+02      0.1045224551E-04
       13    14      0.38703366E+02      0.1045224551E-04
       13    15      0.40206374E+02      0.1822282601E-04
       13    16      0.45803918E+02      0.1824753082E-05
       13    17      0.45803918E+02      0.1824753082E-05
       13    18      0.56602921E+02      0.3797321640E-06
       13    19      0.72248731E+02      0.2921634223E-06
       13    20      0.76749068E+02     -0.7277998720E-07
       13    21      0.76749068E+02     -0.7277998720E-07
       13    22      0.97047958E+02      0.3922049380E-08
       13    23      0.99661106E+02     -0.1909093633E-09
       13    24      0.13051008E+03      0.6344131277E-15
       14     1     -0.94592176E+01      0.0000000000E+00
       14     2     -0.94592176E+01      0.0000000000E+00
       14     3     -0.59977756E+01      0.0000000000E+00
       14     4      0.22825870E+01     -0.8506265271E-03
       14     5      0.22825870E+01     -0.8506265271E-03
       14     6      0.43674221E+01      0.1412470004E-02
       14     7      0.17213113E+02      0.1393040886E-02
       14     8      0.29335545E+02      0.8811424948E-04
       14     9      0.29335545E+02      0.8811424948E-04
       14    10      0.30569541E+02      0.4026505117E-03
       14    11      0.31868760E+02      0.1704664690E-03
       14    12      0.31868760E+02      0.1704664690E-03
       14    13      0.38711178E+02      0.1709386052E-04
       14    14      0.38711178E+02      0.1709386052E-04
       14    15      0.40331655E+02     -0.5040462330E-04
       14    16      0.45875134E+02      0.2328903890E-05
       14    17      0.45875134E+02      0.2328903890E-05
       14    18      0.56600253E+02      0.6439098400E-06
       14    19      0.72218046E+02      0.3643341856E-06
       14    20      0.76735513E+02     -0.8139645588E-07
       14    21      0.76735513E+02     -0.8139645588E-07
       14    22      0.97142469E+02      0.5298322415E-08
       14    23      0.10003089E+03     -0.2828960943E-09
       14    24      0.13053230E+03      0.9541106440E-15
       15     1     -0.93436633E+01      0.0000000000E+00
       15     2     -0.93436633E+01      0.0000000000E+00
       15     3     -0.60035656E+01      0.0000000000E+00
       15     4      0.24774737E+01     -0.1348005551E-02
       15     5      0.24774737E+01     -0.1348005551E-02
       15     6      0.47216796E+01      0.1587892577E-02
       15     7      0.17333161E+02      0.1632428107E-02
       15     8      0.29167111E+02      0.6373073139E-04
       15     9      0.29167111E+02      0.6373073139E-04
       15    10      0.30574051E+02      0.5184256952E-03
       15    11      0.31919522E+02      0.2315877073E-03
       15    12      0.31919522E+02      0.2315877073E-03
       15    13      0.38719218E+02      0.2219624243E-04
       15    14      0.38719218E+02      0.2219624243E-04
       15    15      0.40463191E+02     -0.6700084228E-04
       15    16      0.45950723E+02      0.1794390932E-05
       15    17      0.45950723E+02      0.1794390932E-05
       15    18      0.56597382E+02      0.8425017924E-06
       15    19      0.72184981E+02      0.3910676033E-06
       15    20      0.76720936E+02     -0.9679306539E-07
       15    21      0.76720936E+02     -0.9679306539E-07
       15    22      0.97245355E+02      0.6163865403E-08
       15    23      0.10042269E+03     -0.1846495568E-09
       15    24      0.13055633E+03      0.1275890307E-14
       16     1     -0.92216293E+01      0.0000000000E+00
       16     2     -0.92216293E+01      0.0000000000E+00
       16     3     -0.60097694E+01      0.0000000000E+00
       16     4      0.26767520E+01     -0.2046224271E-02
       16     5      0.26767520E+01     -0.2046224271E-02
       16     6      0.50783772E+01      0.1732197144E-02
       16     7      0.17460073E+02      0.1833917069E-02
       16     8      0.28991067E+02      0.7074763602E-04
       16     9      0.28991067E+02      0.7074763602E-04
       16    10      0.30578812E+02      0.6492235572E-03
       16    11      0.31971156E+02      0.3007663617E-03
       16    12      0.31971156E+02      0.3007663617E-03
       16    13      0.38727437E+02      0.2800152656E-04
       16    14      0.38727437E+02      0.2800152656E-04
       16    15      0.40600269E+02     -0.8808644958E-04
       16    16      0.46030432E+02      0.2282451511E-05
       16    17      0.46030432E+02      0.2282451511E-05
       16    18      0.56594311E+02      0.1053282259E-05
       16    19      0.72149553E+02      0.4677452865E-06
       16    20      0.76705348E+02     -0.1070179067E-06
       16    21      0.76705348E+02     -0.1070179067E-06
       16    22      0.97356077E+02      0.6878386145E-08
       16    23      0.10083559E+03     -0.7365189700E-10
       16    24      0.13058215E+03      0.1657534424E-14
       17     1     -0.90936594E+01      0.0000000000E+00
       17     2     -0.90936594E+01      0.0000000000E+00
       17     3     -0.60163836E+01      0.0000000000E+00
       17     4      0.28807258E+01     -0.5158467535E-02
       17     5      0.28807258E+01     -0.5158467535E-02
       17     6      0.54372344E+01      0.1870209374E-02
       17     7      0.17593545E+02      0.2000609663E-02
       17     8      0.28807626E+02      0.1267842805E-04
       17     9      0.28807626E+02      0.1267842805E-04
       17    10      0.30583808E+02      0.7904337247E-03
       17    11      0.32023762E+02      0.3632183942E-03
       17    12      0.32023762E+02      0.3632183942E-03
       17    13      0.38735795E+02      0.3316531177E-04
       17    14      0.38735795E+02      0.3316531177E-04
       17    15      0.40742168E+02     -0.1127145718E-03
       17    16      0.46114002E+02      0.1238895498E-05
       17    17      0.46114002E+02      0.1238895498E-05
       17    18      0.56591042E+02      0.1281797362E-05
       17    19      0.72111782E+02      0.4913898470E-06
       17    20      0.76688766E+02     -0.2051663004E-06
       17    21      0.76688766E+02     -0.2051663004E-06
       17    22      0.97474099E+02      0.7563943024E-08
       17    23      0.10126861E+03      0.4039664272E-10
       17    24      0.13060979E+03      0.2096867912E-14
       18     1     -0.89603637E+01      0.0000000000E+00
       18     2     -0.89603637E+01      0.0000000000E+00
       18     3     -0.60234047E+01      0.0000000000E+00
       18     4      0.30896716E+01     -0.7582680390E-02
       18     5      0.30896716E+01     -0.7582680390E-02
       18     6      0.57979230E+01      0.2172824100E-02
       18     7      0.17733280E+02      0.2308997391E-02
       18     8      0.28617001E+02      0.1085625647E-04
       18     9      0.28617001E+02      0.1085625647E-04
       18    10      0.30589020E+02      0.1144871869E-02
       18    11      0.32077435E+02      0.5294066388E-03
       18    12      0.32077435E+02      0.5294066388E-03
       18    13      0.38744259E+02      0.4475368422E-04
       18    14      0.38744259E+02      0.4475368422E-04
       18    15      0.40888170E+02     -0.1128260614E-03
       18    16      0.46201175E+02      0.1523329225E-05
       18    17      0.46201175E+02      0.1523329225E-05
       18    18      0.56587578E+02      0.1561844681E-05
       18    19      0.72071688E+02      0.5424013535E-06
       18    20      0.76671205E+02     -0.2506968980E-06
       18    21      0.76671205E+02     -0.2506968980E-06
       18    22      0.97598890E+02      0.8955401814E-08
       18    23      0.10172072E+03      0.1619230855E-09
       18    24      0.13063923E+03      0.2916952905E-14
       19     1     -0.88224199E+01      0.0000000000E+00
       19     2     -0.88224199E+01      0.0000000000E+00
       19     3     -0.60308284E+01      0.0000000000E+00
       19     4      0.33038270E+01     -0.1140421700E-01
       19     5      0.33038270E+01     -0.1140421700E-01
       19     6      0.61600730E+01      0.2304150722E-02
       19     7      0.17878997E+02      0.2429954535E-02
       19     8      0.28419408E+02      0.4695307589E-05
       19     9      0.28419408E+02      0.4695307589E-05
       19    10      0.30594430E+02      0.1351829309E-02
       19    11      0.32132258E+02      0.6473125480E-03
       19    12      0.32132258E+02      0.6473125480E-03
       19    13      0.38752805E+02      0.5415383088E-04
       19    14      0.38752805E+02      0.5415383088E-04
       19    15      0.41037561E+02     -0.1645637296E-03
       19    16      0.46291692E+02      0.2232492990E-05
       19    17      0.46291692E+02      0.2232492990E-05
       19    18      0.56583922E+02      0.1878430354E-05
       19    19      0.72029295E+02      0.6310730696E-06
       19    20      0.76652682E+02     -0.2956385046E-06
       19    21      0.76652682E+02     -0.2956385046E-06
       19    22      0.97729926E+02      0.9605795954E-08
       19    23      0.10219081E+03      0.2603239818E-09
       19    24      0.13067047E+03      0.3635743471E-14
       20     1     -0.86805723E+01      0.0000000000E+00
       20     2     -0.86805723E+01      0.0000000000E+00
       20     3     -0.60386507E+01      0.0000000000E+00
       20     4      0.35233778E+01     -0.1484009585E-01
       20     5      0.35233778E+01     -0.1484009585E-01
       20     6      0.65232792E+01      0.2441816665E-02
       20     7      0.18030431E+02      0.2582128390E-02
       20     8      0.28215063E+02      0.1787153199E-05
       20     9      0.28215063E+02      0.1787153199E-05
       20    10      0.30600020E+02      0.1625960403E-02
       20    11      0.32188306E+02      0.7852342425E-03
       20    12      0.32188306E+02      0.7852342425E-03
       20    13      0.38761414E+02      0.6552322395E-04
       20    14      0.38761414E+02      0.6552322395E-04
       20    15      0.41189638E+02      0.1717811670E-03
       20    16      0.46385297E+02      0.3417375311E-05
       20    17      0.46385297E+02      0.3417375311E-05
       20    18      0.56580077E+02      0.2237153748E-05
       20    19      0.71984625E+02      0.7341381162E-06
       20    20      0.76633215E+02     -0.3145120138E-06
       20    21      0.76633215E+02     -0.3145120138E-06
       20    22      0.97866686E+02      0.1027179479E-07
       20    23      0.10267773E+03      0.1185433914E-08
       20    24      0.13070352E+03      0.4471655098E-14
       21     1     -0.85356279E+01      0.0000000000E+00
       21     2     -0.85356279E+01      0.0000000000E+00
       21     3     -0.60468667E+01      0.0000000000E+00
       21     4      0.37484437E+01     -0.1911961960E-01
       21     5      0.37484437E+01     -0.1911961960E-01
       21     6      0.68871070E+01      0.2540344211E-02
       21     7      0.18187333E+02      0.2713782544E-02
       21     8      0.28004184E+02     -0.2744426456E-05
       21     9      0.28004184E+02     -0.2744426456E-05
       21    10      0.30605768E+02      0.1909056201E-02
       21    11      0.32245638E+02      0.9391782520E-03
       21    12      0.32245638E+02      0.9391782520E-03
       21    13      0.38770077E+02      0.7855079878E-04
       21    14      0.38770077E+02      0.7855079878E-04
       21    15      0.41343713E+02      0.5239427524E-03
       21    16      0.46481736E+02      0.5029893941E-05
       21    17      0.46481736E+02      0.5029893941E-05
       21    18      0.56576047E+02      0.2642641447E-05
       21    19      0.71937706E+02      0.8281268716E-06
       21    20      0.76612822E+02     -0.3323051358E-06
       21    21      0.76612822E+02     -0.3323051358E-06
       21    22      0.98008657E+02      0.1091075148E-07
       21    23      0.10318028E+03      0.2065210919E-08
       21    24      0.13073837E+03      0.5439727491E-14
       22     1     -0.83884489E+01      0.0000000000E+00
       22     2     -0.83884489E+01      0.0000000000E+00
       22     3     -0.60554715E+01      0.0000000000E+00
       22     4      0.39790637E+01     -0.2461871207E-01
       22     5      0.39790637E+01     -0.2461871207E-01
       22     6      0.72510982E+01      0.2842801551E-02
       22     7      0.18349469E+02      0.2849211444E-02
       22     8      0.27786989E+02      0.5472090117E-06
       22     9      0.27786989E+02      0.5472090117E-06
       22    10      0.30611654E+02      0.2684769427E-02
       22    11      0.32304304E+02      0.1258725675E-02