&CONTROL
    calculation   = 'scf'
    restart_mode  = 'from_scratch'
    prefix        = 'Landau_17'
    pseudo_dir    = '/cluster/scratch/mnoe/QE/pps'
    outdir        = './'
/
&SYSTEM
    ibrav       = 0
    nat         = 32
    ntyp        = 2
    ecutwfc     = 120
    occupations = 'smearing'
    degauss     = 7.35d-4
    tot_charge  = -1.0
/
&ELECTRONS
    conv_thr    = 1.0d-8
    diagonalization = 'david'
/

CELL_PARAMETERS angstrom
   7.496701529  -0.000000009  -0.000000120
  -0.000000003   7.613162744   0.000000029
  -0.000000120   0.000000032   7.496701542

ATOMIC_SPECIES
W 183.84 W_ONCV_LDA-4.0.upf
O 15.9994 O_ONCV_LDA-3.0.upf

ATOMIC_POSITIONS crystal
W 0.25	0.2683286078058961	0.0	
W 0.7499999280717683	0.7316713921941039	0.0	
W 0.25	0.23167141168961813	0.5	
W 0.7499999280717683	0.7683287161668451	0.5	
W 0.7499999280717683	0.2683286078058961	0.5	
W 0.25	0.7316713921941039	0.5	
W 0.7499999280717683	0.23167141168961813	0.0	
W 0.25	0.7683287161668451	0.0	
O 0.25	0.004633646656126819	0.0	
O 0.7499999280717683	0.9953662819380691	0.0	
O 0.25	0.495366390299018	0.5	
O 0.7499999280717683	0.5046337180619309	0.5	
O 0.7499999280717683	0.004633646656126819	0.5	
O 0.25	0.9953662819380691	0.5	
O 0.7499999280717683	0.495366390299018	0.0	
O 0.25	0.5046337180619309	0.0	
O 0.5	0.25	0.48262692765060267	
O 0.5	0.7500000524327173	0.517373187701375	
O 0.0	0.25	0.9826269606506027	
O 0.0	0.7500000524327173	0.017372962474991746	
O 0.5	0.25	0.017372962474991746	
O 0.5	0.7500000524327173	0.9826269606506027	
O 0.0	0.25	0.517373187701375	
O 0.0	0.7500000524327173	0.48262692765060267	
O 0.7326268842268566	0.25	0.7499999280717683	
O 0.2673730004211654	0.7500000524327173	0.25	
O 0.7673732596296067	0.25	0.25	
O 0.2326269436506027	0.7500000524327173	0.7499999280717683	
O 0.2673730004211654	0.25	0.7499999280717683	
O 0.7326268842268566	0.7500000524327173	0.25	
O 0.2326269436506027	0.25	0.25	
O 0.7673732596296067	0.7500000524327173	0.7499999280717683	

K_POINTS automatic
6 6 6 0 0 0
