
&CONTROL
    calculation   = 'vc-relax'
    restart_mode  = 'from_scratch'
    prefix        = 'Landau_8'
    pseudo_dir    = '/cluster/scratch/mnoe/QE/pps'
    outdir        = './'
    forc_conv_thr = 1.0d-7
    etot_conv_thr = 1.0d-7

/
&SYSTEM
    ibrav       = 0
    nat         = 32
    ntyp        = 2
    ecutwfc     = 120
    occupations = 'smearing'
    degauss     = 7.35d-4
    tot_charge  = -0.0
/
&ELECTRONS
    conv_thr    = 1.0d-8
    diagonalization = 'david'
/


&IONS
ion_dynamics = 'bfgs'
/

&CELL
cell_dynamics = 'bfgs'
cell_dofree = 'all'
/
CELL_PARAMETERS angstrom
        7.3236460686         0.0000000000         0.0000000000
        0.0000000000         7.7495899200         0.0000000000
        0.0000000000         0.0000000000         7.3236460686

ATOMIC_SPECIES
W 183.84 W_ONCV_LDA-4.0.upf
O 15.9994 O_ONCV_LDA-3.0.upf

ATOMIC_POSITIONS crystal
W 0.2463	0.2832746625711444	0.00349	 0 0 0
W 0.753700049	0.7167253374288556	0.996510002	 0 0 0
W 0.253700016	0.2167253505543047	0.503489965	 0 0 0
W 0.746299951	0.7832746315711444	0.496510002	 0 0 0
W 0.753700049	0.2832746625711444	0.496510002	 0 0 0
W 0.2463	0.7167253374288556	0.503489965	 0 0 0
W 0.746299951	0.2167253505543047	0.996510002	 0 0 0
W 0.253700016	0.7832746315711444	0.00349	 0 0 0
O 0.243180001	0.010996858794247211	0.00109	 0 0 0
O 0.75681995	0.9890031675799444	0.998910027	 0 0 0
O 0.256819999	0.4890031327058726	0.501090006	 0 0 0
O 0.74318005	0.5109968401681992	0.498909994	 0 0 0
O 0.75681995	0.010996858794247211	0.498909994	 0 0 0
O 0.243180001	0.9890031675799444	0.501090006	 0 0 0
O 0.74318005	0.4890031327058726	0.998910027	 0 0 0
O 0.256819999	0.5109968401681992	0.00109	 0 0 0
O 0.501010016	0.243	0.4568520071659082	 0 0 0
O 0.498989984	0.756999969	0.5431479679571457	 0 0 0
O 0.998989984	0.257	0.9568520341673453	 0 0 0
O 0.001009941	0.743	0.04314801433277444	 0 0 0
O 0.498989984	0.243	0.04314801433277444	 0 0 0
O 0.501010016	0.756999969	0.9568520341673453	 0 0 0
O 0.001009941	0.257	0.5431479679571457	 0 0 0
O 0.998989984	0.743	0.4568520071659082	 0 0 0
O 0.7068520442899201	0.248469997	0.748470001	 0 0 0
O 0.2931479988326547	0.751529987	0.251529999	 0 0 0
O 0.7931479638331337	0.251529987	0.248470066	 0 0 0
O 0.20685202329087823	0.748469982	0.751529999	 0 0 0
O 0.2931479988326547	0.248469997	0.751529999	 0 0 0
O 0.7068520442899201	0.751529987	0.248470066	 0 0 0
O 0.20685202329087823	0.251529987	0.251529999	 0 0 0
O 0.7931479638331337	0.748469982	0.748470001	 0 0 0

K_POINTS automatic
6 6 6 0 0 0
