
&CONTROL
    calculation   = 'vc-relax'
    restart_mode  = 'from_scratch'
    prefix        = 'Landau_17'
    pseudo_dir    = '/cluster/scratch/mnoe/QE/pps'
    outdir        = './'
    forc_conv_thr = 1.0d-7
    etot_conv_thr = 1.0d-7

/
&SYSTEM
    ibrav       = 0
    nat         = 32
    ntyp        = 2
    ecutwfc     = 120
    occupations = 'smearing'
    degauss     = 7.35d-4
    tot_charge  = -0.0
/
&ELECTRONS
    conv_thr    = 1.0d-8
    diagonalization = 'david'
/


&IONS
ion_dynamics = 'bfgs'
/

&CELL
cell_dynamics = 'bfgs'
cell_dofree = 'all'
/
CELL_PARAMETERS angstrom
        7.3236460686         0.0000000000         0.0000000000
        0.0000000000         7.7495899200         0.0000000000
        0.0000000000         0.0000000000         7.3236460686

ATOMIC_SPECIES
W 183.84 W_ONCV_LDA-4.0.upf
O 15.9994 O_ONCV_LDA-3.0.upf

ATOMIC_POSITIONS crystal
W 0.242140001	0.28016988927855974	0.00743	 0 0 0
W 0.7578599740159382	0.7198301107214403	0.992569951	 0 0 0
W 0.257859999	0.21983012628294413	0.507430016	 0 0 0
W 0.7421400080159382	0.7801698756851796	0.492570016	 0 0 0
W 0.7578599740159382	0.28016988927855974	0.492570016	 0 0 0
W 0.242140001	0.7198301107214403	0.507430016	 0 0 0
W 0.7421400080159382	0.21983012628294413	0.992569951	 0 0 0
W 0.257859999	0.7801698756851796	0.00743	 0 0 0
O 0.235499987	0.007859562899524792	0.00231	 0 0 0
O 0.7645000200159382	0.992140448308894	0.997690025	 0 0 0
O 0.264500029	0.4921404347155139	0.502309975	 0 0 0
O 0.7354999620159381	0.507859551691106	0.497689993	 0 0 0
O 0.7645000200159382	0.007859562899524792	0.497689993	 0 0 0
O 0.235499987	0.992140448308894	0.502309975	 0 0 0
O 0.7354999620159381	0.4921404347155139	0.997690025	 0 0 0
O 0.264500029	0.507859551691106	0.00231	 0 0 0
O 0.502149995	0.235119995	0.4536726645911634	 0 0 0
O 0.497850005	0.7648799984225579	0.5463273209384641	 0 0 0
O 0.997850005	0.26487999	0.9536726975911634	 0 0 0
O 0.002150059	0.735119987422558	0.04632733568672836	 0 0 0
O 0.497850005	0.235119995	0.04632733568672836	 0 0 0
O 0.502149995	0.7648799984225579	0.9536726975911634	 0 0 0
O 0.002150059	0.26487999	0.5463273209384641	 0 0 0
O 0.997850005	0.735119987422558	0.4536726645911634	 0 0 0
O 0.7036726880455977	0.246749998	0.7467399680159382	 0 0 0
O 0.2963273264247747	0.753250010422558	0.253260023	 0 0 0
O 0.796327329922526	0.253250002	0.246739977	 0 0 0
O 0.2036726805911634	0.746749976422558	0.7532600140159381	 0 0 0
O 0.2963273264247747	0.246749998	0.7532600140159381	 0 0 0
O 0.7036726880455977	0.753250010422558	0.246739977	 0 0 0
O 0.2036726805911634	0.253250002	0.253260023	 0 0 0
O 0.796327329922526	0.746749976422558	0.7467399680159382	 0 0 0

K_POINTS automatic
6 6 6 0 0 0
