
&CONTROL
    calculation   = 'vc-relax'
    restart_mode  = 'from_scratch'
    prefix        = 'Landau_17'
    pseudo_dir    = '/cluster/scratch/mnoe/QE/pps'
    outdir        = './'
    forc_conv_thr = 1.0d-7
    etot_conv_thr = 1.0d-7

/
&SYSTEM
    ibrav       = 0
    nat         = 32
    ntyp        = 2
    ecutwfc     = 120
    occupations = 'smearing'
    degauss     = 7.35d-4
    tot_charge  = -0.0
/
&ELECTRONS
    conv_thr    = 1.0d-8
    diagonalization = 'david'
/


&IONS
ion_dynamics = 'bfgs'
/

&CELL
cell_dynamics = 'bfgs'
cell_dofree = 'all'
/
CELL_PARAMETERS angstrom
        7.3236460686         0.0000000000         0.0000000000
        0.0000000000         7.7495899200         0.0000000000
        0.0000000000         0.0000000000         7.3236460686

ATOMIC_SPECIES
W 183.84 W_ONCV_LDA-4.0.upf
O 15.9994 O_ONCV_LDA-3.0.upf

ATOMIC_POSITIONS crystal
        0.242140001         0.281860003         0.007430000 0 0 0
        0.757859983         0.718139997         0.992569951 0 0 0
        0.257859999         0.218140012         0.507430016 0 0 0
        0.742140017         0.781859972         0.492570016 0 0 0
        0.757859983         0.281860003         0.492570016 0 0 0
        0.242140001         0.718139997         0.507430016 0 0 0
        0.742140017         0.218140012         0.992569951 0 0 0
        0.257859999         0.781859972         0.007430000 0 0 0
        0.235499987         0.008320000         0.002310000 0 0 0
        0.764500029         0.991680023         0.997690025 0 0 0
        0.264500029         0.491679992         0.502309975 0 0 0
        0.735499971         0.508319977         0.497689993 0 0 0
        0.764500029         0.008320000         0.497689993 0 0 0
        0.235499987         0.991680023         0.502309975 0 0 0
        0.735499971         0.491679992         0.997690025 0 0 0
        0.264500029         0.508319977         0.002310000 0 0 0
        0.502149995         0.235119995         0.449540004 0 0 0
        0.497850005         0.764879990         0.550459963 0 0 0
        0.997850005         0.264879990         0.949540037 0 0 0
        0.002150059         0.735119979         0.050460012 0 0 0
        0.497850005         0.235119995         0.050460012 0 0 0
        0.502149995         0.764879990         0.949540037 0 0 0
        0.002150059         0.264879990         0.550459963 0 0 0
        0.997850005         0.735119979         0.449540004 0 0 0
        0.699540037         0.246749998         0.746739977 0 0 0
        0.300459996         0.753250002         0.253260023 0 0 0
        0.800459963         0.253250002         0.246739977 0 0 0
        0.199540020         0.746749968         0.753260023 0 0 0
        0.300459996         0.246749998         0.753260023 0 0 0
        0.699540037         0.753250002         0.246739977 0 0 0
        0.199540020         0.253250002         0.253260023 0 0 0
        0.800459963         0.746749968         0.746739977 0 0 0

K_POINTS automatic
6 6 6 0 0 0
