
&CONTROL
    calculation   = 'vc-relax'
    restart_mode  = 'from_scratch'
    prefix        = 'Landau_25'
    pseudo_dir    = '/cluster/scratch/mnoe/QE/pps'
    outdir        = './'
    forc_conv_thr = 1.0d-7
    etot_conv_thr = 1.0d-7

/
&SYSTEM
    ibrav       = 0
    nat         = 32
    ntyp        = 2
    ecutwfc     = 120
    occupations = 'smearing'
    degauss     = 7.35d-4
    tot_charge  = -0.0
/
&ELECTRONS
    conv_thr    = 1.0d-8
    diagonalization = 'david'
/


&IONS
ion_dynamics = 'bfgs'
/

&CELL
cell_dynamics = 'bfgs'
cell_dofree = 'all'
/
CELL_PARAMETERS angstrom
        7.3236460686         0.0000000000         0.0000000000
        0.0000000000         7.7495899200         0.0000000000
        0.0000000000         0.0000000000         7.3236460686

ATOMIC_SPECIES
W 183.84 W_ONCV_LDA-4.0.upf
O 15.9994 O_ONCV_LDA-3.0.upf

ATOMIC_POSITIONS crystal
W 0.238440001	0.28062190917477076	0.01092	 0 0 0
W 0.76155995941872	0.7193780908252293	0.989080018	 0 0 0
W 0.261559999	0.21937810623655926	0.510919982	 0 0 0
W 0.7384400274187201	0.7806218909260005	0.489080018	 0 0 0
W 0.76155995941872	0.28062190917477076	0.489080018	 0 0 0
W 0.238440001	0.7193780908252293	0.510919982	 0 0 0
W 0.7384400274187201	0.21937810623655926	0.989080018	 0 0 0
W 0.261559999	0.7806218909260005	0.01092	 0 0 0
O 0.228669993	0.007982706524553252	0.0034	 0 0 0
O 0.77133000041872	0.9920173078375168	0.996599987	 0 0 0
O 0.271330007	0.4920172895887467	0.503400013	 0 0 0
O 0.72866998641872	0.5079826921624832	0.496599987	 0 0 0
O 0.77133000041872	0.007982706524553252	0.496599987	 0 0 0
O 0.228669993	0.9920173078375168	0.503400013	 0 0 0
O 0.72866998641872	0.4920172895887467	0.996599987	 0 0 0
O 0.271330007	0.5079826921624832	0.0034	 0 0 0
O 0.503160011	0.228119995	0.4525673870067053	 0 0 0
O 0.496839989	0.7718800421699499	0.5474325935671845	 0 0 0
O 0.996839989	0.271880005	0.9525674200067054	 0 0 0
O 0.00316	0.7281200011699499	0.047432617476054824	 0 0 0
O 0.496839989	0.228119995	0.047432617476054824	 0 0 0
O 0.503160011	0.7718800421699499	0.9525674200067054	 0 0 0
O 0.00316	0.271880005	0.5474325935671845	 0 0 0
O 0.996839989	0.7281200011699499	0.4525673870067053	 0 0 0
O 0.7025674130140954	0.245220011	0.74520997141872	 0 0 0
O 0.29743260641201474	0.7547800101699499	0.254790006	 0 0 0
O 0.7974326001484644	0.254779989	0.245209929	 0 0 0
O 0.2025674030067053	0.7452200331699499	0.75479001541872	 0 0 0
O 0.29743260641201474	0.245220011	0.75479001541872	 0 0 0
O 0.7025674130140954	0.7547800101699499	0.245209929	 0 0 0
O 0.2025674030067053	0.254779989	0.254790006	 0 0 0
O 0.7974326001484644	0.7452200331699499	0.74520997141872	 0 0 0

K_POINTS automatic
6 6 6 0 0 0
