&CONTROL
    calculation   = 'scf'
    restart_mode  = 'from_scratch'
    prefix        = 'Landau_15'
    pseudo_dir    = '/cluster/scratch/mnoe/QE/pps'
    outdir        = './'
/
&SYSTEM
    ibrav       = 0
    nat         = 32
    ntyp        = 2
    ecutwfc     = 120
    occupations = 'smearing'
    degauss     = 7.35d-4
    tot_charge  = -0.2
/
&ELECTRONS
    conv_thr    = 1.0d-8
    diagonalization = 'david'
/

CELL_PARAMETERS angstrom
   7.365698159   0.000000000   0.000000000
   0.000000000   7.631587502   0.000000000
   0.000000000   0.000000000   7.396825671

ATOMIC_SPECIES
W 183.84 W_ONCV_LDA-4.0.upf
O 15.9994 O_ONCV_LDA-3.0.upf

ATOMIC_POSITIONS crystal
W 0.236129994	0.27887744937392894	0.0131	
W 0.7638699901457732	0.7211225506260711	0.986899942	
W 0.263870006	0.22112256661696023	0.513100026	
W 0.7361299781457732	0.7788774490914934	0.486900007	
W 0.7638699901457732	0.27887744937392894	0.486900007	
W 0.236129994	0.7211225506260711	0.513100026	
W 0.7361299781457732	0.22112256661696023	0.986899942	
W 0.263870006	0.7788774490914934	0.0131	
O 0.224409998	0.007507463940337867	0.00408	
O 0.7755900021457732	0.9924925382509895	0.995920023	
O 0.275590018	0.4924925379685539	0.504080009	
O 0.7244099661457731	0.5075074617490105	0.495919991	
O 0.7755900021457732	0.007507463940337867	0.495919991	
O 0.224409998	0.9924925382509895	0.504080009	
O 0.7244099661457731	0.4924925379685539	0.995920023	
O 0.275590018	0.5075074617490105	0.00408	
O 0.503790033	0.223739997	0.45683293445499423	
O 0.496209967	0.7762600488633377	0.5431670652443485	
O 0.996209967	0.276260003	0.9568329674549942	
O 0.003790021	0.7237400118633377	0.043167053800108865	
O 0.496209967	0.223739997	0.043167053800108865	
O 0.503790033	0.7762600488633377	0.9568329674549942	
O 0.003790021	0.276260003	0.5431670652443485	
O 0.996209967	0.7237400118633377	0.45683293445499423	
O 0.7068329506098783	0.244269997	0.7442499521457732	
O 0.29316704969077895	0.7557300178633377	0.255749999	
O 0.7931670810985753	0.255730003	0.244250066	
O 0.20683295045499422	0.7442699818633377	0.7557500161457732	
O 0.29316704969077895	0.244269997	0.7557500161457732	
O 0.7068329506098783	0.7557300178633377	0.244250066	
O 0.20683295045499422	0.255730003	0.255749999	
O 0.7931670810985753	0.7442699818633377	0.7442499521457732	

K_POINTS automatic
6 6 6 0 0 0
