
&CONTROL
    calculation   = 'vc-relax'
    restart_mode  = 'from_scratch'
    prefix        = 'Landau_16'
    pseudo_dir    = '/cluster/scratch/mnoe/QE/pps'
    outdir        = './'
    forc_conv_thr = 1.0d-7
    etot_conv_thr = 1.0d-7

/
&SYSTEM
    ibrav       = 0
    nat         = 32
    ntyp        = 2
    ecutwfc     = 120
    occupations = 'smearing'
    degauss     = 7.35d-4
    tot_charge  = -0.0
/
&ELECTRONS
    conv_thr    = 1.0d-8
    diagonalization = 'david'
/


&IONS
ion_dynamics = 'bfgs'
/

&CELL
cell_dynamics = 'bfgs'
cell_dofree = 'all'
/
CELL_PARAMETERS angstrom
        7.3236460686         0.0000000000         0.0000000000
        0.0000000000         7.7495899200         0.0000000000
        0.0000000000         0.0000000000         7.3236460686

ATOMIC_SPECIES
W 183.84 W_ONCV_LDA-4.0.upf
O 15.9994 O_ONCV_LDA-3.0.upf

ATOMIC_POSITIONS crystal
W 0.22472985955916627	0.27869226204938674	0.0028885767472597718	 0 0 0
W 0.7543298488981329	0.7213077379506132	-0.02506340645274027	 0 0 0
W 0.27527014044083375	0.22130775400302688	0.5028885745588066	 0 0 0
W 0.7456701312090073	0.7786922636742106	0.47493655695880665	 0 0 0
W 0.7752701040090073	0.27869226204938674	0.4971114254411933	 0 0 0
W 0.24567014044083374	0.7213077379506132	0.5250634430411933	 0 0 0
W 0.7247298760981329	0.22130775400302688	-0.0028885583472598175	 0 0 0
W 0.25432985955916626	0.7786922636742106	0.025063424852740223	 0 0 0
O 0.21944167362477193	0.007457013421135948	-0.016110796297529473	 0 0 0
O 0.7740496383861531	-0.007457012521823068	-0.024798801897529442	 0 0 0
O 0.2805582937976427	0.4925429891030008	0.4838891631248851	 0 0 0
O 0.7259503237413639	0.5074570125218231	0.4752011783248851	 0 0 0
O 0.7805582661413639	0.007457013421135948	0.5161108200642471	 0 0 0
O 0.22595028579764267	-0.007457012521823068	0.5247988048642471	 0 0 0
O 0.7194416959861532	0.4925429891030008	0.016110790697529506	 0 0 0
O 0.27404968162477195	0.5074570125218231	0.024798796297529475	 0 0 0
O 0.508644788313831	0.2174131913174136	0.45728575390046095	 0 0 0
O 0.500548775513831	0.7734292114934302	0.5427142478291902	 0 0 0
O -0.008644775757980963	0.28258678468258636	0.957285786900461	 0 0 0
O -0.0005487765579809531	0.726570874637547	0.042714232631956166	 0 0 0
O 0.49135521168616897	0.2174131913174136	0.042714232631956166	 0 0 0
O 0.49945122448616897	0.7734292114934302	0.957285786900461	 0 0 0
O 0.008644748313831002	0.28258678468258636	0.5427142478291902	 0 0 0
O 0.0005487491138309909	0.726570874637547	0.45728575390046095	 0 0 0
O 0.7072857690094285	0.26487020317155224	0.7468965820286916	 0 0 0
O 0.2927142292609202	0.7770942645271921	0.259168556689725	 0 0 0
O 0.7927142646678089	0.23512977884882463	0.24689663108972498	 0 0 0
O 0.207285769900461	0.7229058218044644	0.7591685596286917	 0 0 0
O 0.2927142292609202	0.26487020317155224	0.7531034340376948	 0 0 0
O 0.7072857690094285	0.7770942645271921	0.24083149531027506	 0 0 0
O 0.207285769900461	0.23512977884882463	0.25310342091027505	 0 0 0
O 0.7927142646678089	0.7229058218044644	0.7408314564376948	 0 0 0

K_POINTS automatic
6 6 6 0 0 0
