
&CONTROL
    calculation   = 'vc-relax'
    restart_mode  = 'from_scratch'
    prefix        = 'Landau_29'
    pseudo_dir    = '/cluster/scratch/mnoe/QE/pps'
    outdir        = './'
    forc_conv_thr = 1.0d-7
    etot_conv_thr = 1.0d-7

/
&SYSTEM
    ibrav       = 0
    nat         = 32
    ntyp        = 2
    ecutwfc     = 120
    occupations = 'smearing'
    degauss     = 7.35d-4
    tot_charge  = -0.0
/
&ELECTRONS
    conv_thr    = 1.0d-8
    diagonalization = 'david'
/


&IONS
ion_dynamics = 'bfgs'
/

&CELL
cell_dynamics = 'bfgs'
cell_dofree = 'all'
/
CELL_PARAMETERS angstrom
        7.3236460686         0.0000000000         0.0000000000
        0.0000000000         7.7495899200         0.0000000000
        0.0000000000         0.0000000000         7.3236460686

ATOMIC_SPECIES
W 183.84 W_ONCV_LDA-4.0.upf
O 15.9994 O_ONCV_LDA-3.0.upf

ATOMIC_POSITIONS crystal
W 0.236589993	0.28042381416273404	0.01267	 0 0 0
W 0.7634099833657152	0.7195761858372659	0.987330006	 0 0 0
W 0.263410007	0.21957620131440872	0.512669994	 0 0 0
W 0.7365900013657153	0.7804237979541607	0.487330006	 0 0 0
W 0.7634099833657152	0.28042381416273404	0.487330006	 0 0 0
W 0.236589993	0.7195761858372659	0.512669994	 0 0 0
W 0.7365900013657153	0.21957620131440872	0.987330006	 0 0 0
W 0.263410007	0.7804237979541607	0.01267	 0 0 0
O 0.225260002	0.007928739568481774	0.00394	 0 0 0
O 0.7747399743657153	0.9920712734115196	0.996060014	 0 0 0
O 0.274739982	0.4920712572029462	0.503939986	 0 0 0
O 0.7252600103657152	0.5079287265884804	0.496060014	 0 0 0
O 0.7747399743657153	0.007928739568481774	0.496060014	 0 0 0
O 0.225260002	0.9920712734115196	0.503939986	 0 0 0
O 0.7252600103657152	0.4920712572029462	0.996060014	 0 0 0
O 0.274739982	0.5079287265884804	0.00394	 0 0 0
O 0.503669967	0.224620002	0.45305176828777816	 0 0 0
O 0.496330033	0.7753800051571419	0.5469482144579341	 0 0 0
O 0.996330033	0.275380029	0.9530518012877781	 0 0 0
O 0.003669977	0.7246199781571419	0.046948234352223596	 0 0 0
O 0.496330033	0.224620002	0.046948234352223596	 0 0 0
O 0.503669967	0.7753800051571419	0.9530518012877781	 0 0 0
O 0.003669977	0.275380029	0.5469482144579341	 0 0 0
O 0.996330033	0.7246199781571419	0.45305176828777816	 0 0 0
O 0.7030517931763507	0.244459994	0.7444400223657153	 0 0 0
O 0.29694822407793714	0.7555399981571419	0.255559986	 0 0 0
O 0.7969482220922187	0.255540006	0.244440079	 0 0 0
O 0.20305178428777815	0.7444599861571419	0.7555599623657152	 0 0 0
O 0.29694822407793714	0.244459994	0.7555599623657152	 0 0 0
O 0.7030517931763507	0.7555399981571419	0.244440079	 0 0 0
O 0.20305178428777815	0.255540006	0.255559986	 0 0 0
O 0.7969482220922187	0.7444599861571419	0.7444400223657153	 0 0 0

K_POINTS automatic
6 6 6 0 0 0
