
&CONTROL
    calculation   = 'vc-relax'
    restart_mode  = 'from_scratch'
    prefix        = 'Landau_37'
    pseudo_dir    = '/cluster/scratch/mnoe/QE/pps'
    outdir        = './'
    forc_conv_thr = 1.0d-7
    etot_conv_thr = 1.0d-7

/
&SYSTEM
    ibrav       = 0
    nat         = 32
    ntyp        = 2
    ecutwfc     = 120
    occupations = 'smearing'
    degauss     = 7.35d-4
    tot_charge  = -0.0
/
&ELECTRONS
    conv_thr    = 1.0d-8
    diagonalization = 'david'
/


&IONS
ion_dynamics = 'bfgs'
/

&CELL
cell_dynamics = 'bfgs'
cell_dofree = 'all'
/
CELL_PARAMETERS angstrom
        7.3236460686         0.0000000000         0.0000000000
        0.0000000000         7.7495899200         0.0000000000
        0.0000000000         0.0000000000         7.3236460686

ATOMIC_SPECIES
W 183.84 W_ONCV_LDA-4.0.upf
O 15.9994 O_ONCV_LDA-3.0.upf

ATOMIC_POSITIONS crystal
W 0.24145343610574682	0.2673298017735929	0.008070728636711726	 0 0 0
W 0.7585464788031138	0.7326701982264071	-0.008070718011253935	 0 0 0
W 0.2585465638942532	0.23267021805375313	0.508070733256476	 0 0 0
W 0.7414533667218058	0.7673299204213271	0.491929266743524	 0 0 0
W 0.7585464788031138	0.2673298017735929	0.491929266743524	 0 0 0
W 0.24145343610574682	0.7326701982264071	0.508070733256476	 0 0 0
W 0.7414533667218058	0.23267021805375313	-0.008070718011253935	 0 0 0
W 0.2585465638942532	0.7673299204213271	0.008070728636711726	 0 0 0
O 0.23423273855047613	0.004361542271897019	0.002508531997069987	 0 0 0
O 0.7657671615751388	-0.00436162064616857	-0.002508535230904955	 0 0 0
O 0.265767254057901	0.4956384980015657	0.5025085199856829	 0 0 0
O 0.7342326839497808	0.5043616206461685	0.497491464769095	 0 0 0
O 0.7657671615751388	0.004361542271897019	0.497491464769095	 0 0 0
O 0.23423273855047613	-0.00436162064616857	0.5025085199856829	 0 0 0
O 0.7342326839497808	0.4956384980015657	-0.002508535230904955	 0 0 0
O 0.265767254057901	0.5043616206461685	0.002508531997069987	 0 0 0
O 0.5023376044149963	0.23382620576263569	0.4850692049219796	 0 0 0
O 0.49766239558500364	0.7661738585772048	0.5149309213804469	 0 0 0
O -0.002337619660218426	0.2661737803780715	0.9850692379219795	 0 0 0
O 0.002337581316175001	0.733826283961769	0.014930675912324963	 0 0 0
O 0.49766239558500364	0.23382620576263569	0.014930675912324963	 0 0 0
O 0.5023376044149963	0.7661738585772048	0.9850692379219795	 0 0 0
O 0.002337581316175001	0.2661737803780715	0.5149309213804469	 0 0 0
O -0.002337619660218426	0.733826283961769	0.4850692049219796	 0 0 0
O 0.7350691558570932	0.24647050102383963	0.7464565700372151	 0 0 0
O 0.26493071784048	0.75352957763727	0.25354335272524475	 0 0 0
O 0.7649309986179871	0.25352949897616034	0.24645667730322302	 0 0 0
O 0.23506922092197957	0.7464705653636801	0.7535432754877045	 0 0 0
O 0.26493071784048	0.24647050102383963	0.7535432754877045	 0 0 0
O 0.7350691558570932	0.75352957763727	0.24645667730322302	 0 0 0
O 0.23506922092197957	0.25352949897616034	0.25354335272524475	 0 0 0
O 0.7649309986179871	0.7464705653636801	0.7464565700372151	 0 0 0

K_POINTS automatic
6 6 6 0 0 0
