
&CONTROL
    calculation   = 'vc-relax'
    restart_mode  = 'from_scratch'
    prefix        = 'Landau_6'
    pseudo_dir    = '/cluster/scratch/mnoe/QE/pps'
    outdir        = './'
    forc_conv_thr = 1.0d-7
    etot_conv_thr = 1.0d-7

/
&SYSTEM
    ibrav       = 0
    nat         = 32
    ntyp        = 2
    ecutwfc     = 120
    occupations = 'smearing'
    degauss     = 7.35d-4
    tot_charge  = -0.0
/
&ELECTRONS
    conv_thr    = 1.0d-8
    diagonalization = 'david'
/


&IONS
ion_dynamics = 'bfgs'
/

&CELL
cell_dynamics = 'bfgs'
cell_dofree = 'all'
/
CELL_PARAMETERS angstrom
        7.3236460686         0.0000000000         0.0000000000
        0.0000000000         7.7495899200         0.0000000000
        0.0000000000         0.0000000000         7.3236460686

ATOMIC_SPECIES
W 183.84 W_ONCV_LDA-4.0.upf
O 15.9994 O_ONCV_LDA-3.0.upf

ATOMIC_POSITIONS crystal
0.247229993	0.28240302282436003	0.00262	 0 0 0
0.75276999	0.71759697717564	0.997380027	 0 0 0
0.252770007	0.21759699145609	0.502619973	 0 0 0
0.74723001	0.78240299182436	0.497379995	 0 0 0
0.75276999	0.28240302282436003	0.497379995	 0 0 0
0.247229993	0.71759697717564	0.502619973	 0 0 0
0.74723001	0.21759699145609	0.997380027	 0 0 0
0.252770007	0.78240299182436	0.00262	 0 0 0
0.244880007	0.00934751744797	0.00082	 0 0 0
0.755120009	0.9906525068472201	0.999180046	 0 0 0
0.255119976	0.49065247436015	0.500819987	 0 0 0
0.744879991	0.50934749612692	0.499179981	 0 0 0
0.755120009	0.00934751744797	0.499179981	 0 0 0
0.244880007	0.9906525068472201	0.500819987	 0 0 0
0.744879991	0.49065247436015	0.999180046	 0 0 0
0.255119976	0.50934749612692	0.00082	 0 0 0
0.500760019	0.244749996	0.4523467306188	 0 0 0
0.499239981	0.755249989	0.54765323949925	 0 0 0
0.999239949	0.255250004	0.95234676131624	 0 0 0
0.000760078	0.744750042	0.04765328749188	 0 0 0
0.499239981	0.244749996	0.04765328749188	 0 0 0
0.500760019	0.755249989	0.95234676131624	 0 0 0
0.000760078	0.255250004	0.54765323949925	 0 0 0
0.999239949	0.744750042	0.4523467306188	 0 0 0
0.70234676520181	0.248850006	0.748849994	 0 0 0
0.29765327168376	0.751150025	0.251150006	 0 0 0
0.79765323791624	0.251150009	0.248849994	 0 0 0
0.20234674666677002	0.748850006	0.751150006	 0 0 0
0.29765327168376	0.248850006	0.751150006	 0 0 0
0.70234676520181	0.751150025	0.248849994	 0 0 0
0.20234674666677002	0.251150009	0.251150006	 0 0 0
0.79765323791624	0.748850006	0.748849994	 0 0 0

K_POINTS automatic
6 6 6 0 0 0
