
&CONTROL
    calculation   = 'vc-relax'
    restart_mode  = 'from_scratch'
    prefix        = 'Landau_37'
    pseudo_dir    = '/cluster/scratch/mnoe/QE/pps'
    outdir        = './'
    forc_conv_thr = 1.0d-7
    etot_conv_thr = 1.0d-7

/
&SYSTEM
    ibrav       = 0
    nat         = 32
    ntyp        = 2
    ecutwfc     = 120
    occupations = 'smearing'
    degauss     = 7.35d-4
    tot_charge  = -0.0
/
&ELECTRONS
    conv_thr    = 1.0d-8
    diagonalization = 'david'
/


&IONS
ion_dynamics = 'bfgs'
/

&CELL
cell_dynamics = 'bfgs'
cell_dofree = 'all'
/
CELL_PARAMETERS angstrom
        7.3236460686         0.0000000000         0.0000000000
        0.0000000000         7.7495899200         0.0000000000
        0.0000000000         0.0000000000         7.3236460686

ATOMIC_SPECIES
W 183.84 W_ONCV_LDA-4.0.upf
O 15.9994 O_ONCV_LDA-3.0.upf

ATOMIC_POSITIONS crystal
W 0.232889993	0.27269810869330335	0.01616	 0 0 0
W 0.7671099262985286	0.7273018913066966	0.983840008	 0 0 0
W 0.267109991	0.22730190935053848	0.516160024	 0 0 0
W 0.7328899762985286	0.7726981720524043	0.483839976	 0 0 0
W 0.7671099262985286	0.27269810869330335	0.483839976	 0 0 0
W 0.232889993	0.7273018913066966	0.516160024	 0 0 0
W 0.7328899762985286	0.22730190935053848	0.983840008	 0 0 0
W 0.267109991	0.7726981720524043	0.01616	 0 0 0
O 0.218429991	0.005824028281694078	0.00503	 0 0 0
O 0.7815699762985285	0.9941759307976247	0.994970041	 0 0 0
O 0.281570025	0.4941759941567256	0.505029992	 0 0 0
O 0.7184299262985286	0.5058240692023753	0.494970008	 0 0 0
O 0.7815699762985285	0.005824028281694078	0.494970008	 0 0 0
O 0.218429991	0.9941759307976247	0.505029992	 0 0 0
O 0.7184299262985286	0.4941759941567256	0.994970041	 0 0 0
O 0.281570025	0.5058240692023753	0.00503	 0 0 0
O 0.504679983	0.217620002	0.4719426382496192	 0 0 0
O 0.495320017	0.7823800276576296	0.5280574291971655	 0 0 0
O 0.995320017	0.282379982	0.9719426712496192	 0 0 0
O 0.004679918	0.7176200326576295	0.028057292522805716	 0 0 0
O 0.495320017	0.217620002	0.028057292522805716	 0 0 0
O 0.504679983	0.7823800276576296	0.9719426712496192	 0 0 0
O 0.004679918	0.282379982	0.5280574291971655	 0 0 0
O 0.995320017	0.7176200326576295	0.4719426382496192	 0 0 0
O 0.7219426195043059	0.242929991	0.7429099812985286	 0 0 0
O 0.2780573130489092	0.7570700386576296	0.25708997	 0 0 0
O 0.7780574778986369	0.257070009	0.24291003	 0 0 0
O 0.22194265424961923	0.7429300216576296	0.7570899212985286	 0 0 0
O 0.2780573130489092	0.242929991	0.7570899212985286	 0 0 0
O 0.7219426195043059	0.7570700386576296	0.24291003	 0 0 0
O 0.22194265424961923	0.257070009	0.25708997	 0 0 0
O 0.7780574778986369	0.7429300216576296	0.7429099812985286	 0 0 0

K_POINTS automatic
6 6 6 0 0 0
