
&CONTROL
    calculation   = 'vc-relax'
    restart_mode  = 'from_scratch'
    prefix        = 'Landau_11'
    pseudo_dir    = '/cluster/scratch/mnoe/QE/pps'
    outdir        = './'
    forc_conv_thr = 1.0d-7
    etot_conv_thr = 1.0d-7

/
&SYSTEM
    ibrav       = 0
    nat         = 32
    ntyp        = 2
    ecutwfc     = 120
    occupations = 'smearing'
    degauss     = 7.35d-4
    tot_charge  = -0.0
/
&ELECTRONS
    conv_thr    = 1.0d-8
    diagonalization = 'david'
/


&IONS
ion_dynamics = 'bfgs'
/

&CELL
cell_dynamics = 'bfgs'
cell_dofree = 'all'
/
CELL_PARAMETERS angstrom
        7.3236460686         0.0000000000         0.0000000000
        0.0000000000         7.7495899200         0.0000000000
        0.0000000000         0.0000000000         7.3236460686

ATOMIC_SPECIES
W 183.84 W_ONCV_LDA-4.0.upf
O 15.9994 O_ONCV_LDA-3.0.upf

ATOMIC_POSITIONS crystal
W 0.23021649395	0.2807619124954249	-0.000566490099999999	 0 0 0
W 0.7505664969129294	0.7192380875045751	-0.019783478550000025	 0 0 0
W 0.26978350605	0.21923810286939202	0.49943350605	 0 0 0
W 0.7494335040629294	0.7807618928047491	0.48021649395	 0 0 0
W 0.7697834853629295	0.2807619124954249	0.50056649395	 0 0 0
W 0.24943350605	0.7192380875045751	0.51978350605	 0 0 0
W 0.7302165156129294	0.21923810286939202	0.0005665027499999701	 0 0 0
W 0.25056649395	0.7807618928047491	0.019783491199999996	 0 0 0
O 0.228241989	0.008020847581099416	-0.015784980200000007	 0 0 0
O 0.7657849705129295	-0.008020832242254482	-0.021757984049999984	 0 0 0
O 0.27175798405	0.49197914806706966	0.48421498735	 0 0 0
O 0.7342150139629294	0.5080208322422545	0.4782419978	 0 0 0
O 0.7717579743629295	0.008020847581099416	0.5157850033	 0 0 0
O 0.23421497855	-0.008020832242254482	0.52175799285	 0 0 0
O 0.7282420101129294	0.49197914806706966	0.015784976350000028	 0 0 0
O 0.2657849945	0.5080208322422545	0.021757980200000006	 0 0 0
O 0.5070014966999999	0.22654250164999998	0.4522250513410281	 0 0 0
O 0.5014354879	0.7650535075222537	0.5477749276979299	 0 0 0
O -0.007001479100000006	0.27345748184999996	0.952225084341028	 0 0 0
O -0.0014354796499999978	0.7349465399722537	0.04777495444409846	 0 0 0
O 0.4929985033	0.22654250164999998	0.04777495444409846	 0 0 0
O 0.49856451209999997	0.7650535075222537	0.952225084341028	 0 0 0
O 0.007001469200000009	0.27345748184999996	0.5477749276979299	 0 0 0
O 0.0014354697500000018	0.7349465399722537	0.4522250513410281	 0 0 0
O 0.7022250781391407	0.26505348404999995	0.7485645244129294	 0 0 0
O 0.29777494282190137	0.7734575223722536	0.2570014967	 0 0 0
O 0.7977749335350004	0.23494649944999998	0.24856454785	 0 0 0
O 0.2022250673410281	0.7265425251222536	0.7570015090129295	 0 0 0
O 0.29777494282190137	0.26505348404999995	0.7514355095629295	 0 0 0
O 0.7022250781391407	0.7734575223722536	0.24299853905000002	 0 0 0
O 0.2022250673410281	0.23494649944999998	0.25143548790000003	 0 0 0
O 0.7977749335350004	0.7265425251222536	0.7429985249629295	 0 0 0

K_POINTS automatic
6 6 6 0 0 0
