
&CONTROL
    calculation   = 'vc-relax'
    restart_mode  = 'from_scratch'
    prefix        = 'Landau_39'
    pseudo_dir    = '/cluster/scratch/mnoe/QE/pps'
    outdir        = './'
    forc_conv_thr = 1.0d-7
    etot_conv_thr = 1.0d-7

/
&SYSTEM
    ibrav       = 0
    nat         = 32
    ntyp        = 2
    ecutwfc     = 120
    occupations = 'smearing'
    degauss     = 7.35d-4
    tot_charge  = -0.0
/
&ELECTRONS
    conv_thr    = 1.0d-8
    diagonalization = 'david'
/


&IONS
ion_dynamics = 'bfgs'
/

&CELL
cell_dynamics = 'bfgs'
cell_dofree = 'all'
/
CELL_PARAMETERS angstrom
        7.3236460686         0.0000000000         0.0000000000
        0.0000000000         7.7495899200         0.0000000000
        0.0000000000         0.0000000000         7.3236460686

ATOMIC_SPECIES
W 183.84 W_ONCV_LDA-4.0.upf
O 15.9994 O_ONCV_LDA-3.0.upf

ATOMIC_POSITIONS crystal
W 0.25	0.27642353504993766	0.0	 0 0 0
W 0.7499999711016107	0.7235764649500623	0.0	 0 0 0
W 0.25	0.22357648175621156	0.5	 0 0 0
W 0.7499999711016107	0.776423560040567	0.5	 0 0 0
W 0.7499999711016107	0.27642353504993766	0.5	 0 0 0
W 0.25	0.7235764649500623	0.5	 0 0 0
W 0.7499999711016107	0.22357648175621156	0.0	 0 0 0
W 0.25	0.776423560040567	0.0	 0 0 0
O 0.25	0.006838944904121629	0.0	 0 0 0
O 0.7499999711016107	0.9931610401667424	0.0	 0 0 0
O 0.25	0.49316106515737174	0.5	 0 0 0
O 0.7499999711016107	0.5068389598332576	0.5	 0 0 0
O 0.7499999711016107	0.006838944904121629	0.5	 0 0 0
O 0.25	0.9931610401667424	0.5	 0 0 0
O 0.7499999711016107	0.49316106515737174	0.0	 0 0 0
O 0.25	0.5068389598332576	0.0	 0 0 0
O 0.5	0.25	0.4628332378027522	 0 0 0
O 0.5	0.75000001209224	0.5371667888001757	 0 0 0
O 0.0	0.25	0.9628332708027523	 0 0 0
O 0.0	0.75000001209224	0.037166727625066426	 0 0 0
O 0.5	0.25	0.037166727625066426	 0 0 0
O 0.5	0.75000001209224	0.9628332708027523	 0 0 0
O 0.0	0.25	0.5371667888001757	 0 0 0
O 0.0	0.75000001209224	0.4628332378027522	 0 0 0
O 0.7128332400982137	0.25	0.7499999711016107	 0 0 0
O 0.28716673329885833	0.75000001209224	0.25	 0 0 0
O 0.787166817698565	0.25	0.25	 0 0 0
O 0.21283325380275225	0.75000001209224	0.7499999711016107	 0 0 0
O 0.28716673329885833	0.25	0.7499999711016107	 0 0 0
O 0.7128332400982137	0.75000001209224	0.25	 0 0 0
O 0.21283325380275225	0.25	0.25	 0 0 0
O 0.787166817698565	0.75000001209224	0.7499999711016107	 0 0 0

K_POINTS automatic
6 6 6 0 0 0
