&CONTROL
    calculation   = 'scf'
    restart_mode  = 'from_scratch'
    prefix        = 'Landau_6'
    pseudo_dir    = '/cluster/scratch/mnoe/QE/pps'
    outdir        = './'
/
&SYSTEM
    ibrav       = 0
    nat         = 32
    ntyp        = 2
    ecutwfc     = 120
    occupations = 'smearing'
    degauss     = 7.35d-4
    tot_charge  = -0.6
/
&ELECTRONS
    conv_thr    = 1.0d-8
    diagonalization = 'david'
/

CELL_PARAMETERS angstrom
   7.399883381  -0.000000066   0.000000007
  -0.000000068   7.693026177  -0.000000035
   0.000000007  -0.000000027   7.399883241

ATOMIC_SPECIES
W 183.84 W_ONCV_LDA-4.0.upf
O 15.9994 O_ONCV_LDA-3.0.upf

ATOMIC_POSITIONS crystal
W 0.25	0.27708421646090453	0.0	
W 0.7499999746135653	0.7229157835390955	0.0	
W 0.25	0.22291580012574758	0.5	
W 0.7499999746135653	0.7770842346471218	0.5	
W 0.7499999746135653	0.27708421646090453	0.5	
W 0.25	0.7229157835390955	0.5	
W 0.7499999746135653	0.22291580012574758	0.0	
W 0.25	0.7770842346471218	0.0	
O 0.25	0.007018934113927112	0.0	
O 0.7499999746135653	0.9929810555663773	0.0	
O 0.25	0.4929810737525946	0.5	
O 0.7499999746135653	0.5070189444336227	0.5	
O 0.7499999746135653	0.007018934113927112	0.5	
O 0.25	0.9929810555663773	0.5	
O 0.7499999746135653	0.4929810737525946	0.0	
O 0.25	0.5070189444336227	0.0	
O 0.5	0.25	0.46121774175903624	
O 0.5	0.7500000087997826	0.5387822776004852	
O 0.0	0.25	0.9612177747590362	
O 0.0	0.7500000087997826	0.038782229814702966	
O 0.5	0.25	0.038782229814702966	
O 0.5	0.7500000087997826	0.9612177747590362	
O 0.0	0.25	0.5387822776004852	
O 0.0	0.7500000087997826	0.46121774175903624	
O 0.7112177477859494	0.25	0.7499999746135653	
O 0.288782232854529	0.7500000087997826	0.25	
O 0.78878230298692	0.25	0.25	
O 0.21121775775903626	0.7500000087997826	0.7499999746135653	
O 0.288782232854529	0.25	0.7499999746135653	
O 0.7112177477859494	0.7500000087997826	0.25	
O 0.21121775775903626	0.25	0.25	
O 0.78878230298692	0.7500000087997826	0.7499999746135653	

K_POINTS automatic
6 6 6 0 0 0
