
&CONTROL
    calculation   = 'vc-relax'
    restart_mode  = 'from_scratch'
    prefix        = 'Landau_27'
    pseudo_dir    = '/cluster/scratch/mnoe/QE/pps'
    outdir        = './'
    forc_conv_thr = 1.0d-7
    etot_conv_thr = 1.0d-7

/
&SYSTEM
    ibrav       = 0
    nat         = 32
    ntyp        = 2
    ecutwfc     = 120
    occupations = 'smearing'
    degauss     = 7.35d-4
    tot_charge  = -0.0
/
&ELECTRONS
    conv_thr    = 1.0d-8
    diagonalization = 'david'
/


&IONS
ion_dynamics = 'bfgs'
/

&CELL
cell_dynamics = 'bfgs'
cell_dofree = 'all'
/
CELL_PARAMETERS angstrom
        7.3236460686         0.0000000000         0.0000000000
        0.0000000000         7.7495899200         0.0000000000
        0.0000000000         0.0000000000         7.3236460686

ATOMIC_SPECIES
W 183.84 W_ONCV_LDA-4.0.upf
O 15.9994 O_ONCV_LDA-3.0.upf

ATOMIC_POSITIONS crystal
W 0.237509991	0.2866344790526124	0.01179	 0 0 0
W 0.762490025	0.7133655209473876	0.988209993	 0 0 0
W 0.262490009	0.21336552962077834	0.511789974	 0 0 0
W 0.737509975	0.7866344480526124	0.488209993	 0 0 0
W 0.762490025	0.2866344790526124	0.488209993	 0 0 0
W 0.237509991	0.7133655209473876	0.511789974	 0 0 0
W 0.737509975	0.21336552962077834	0.988209993	 0 0 0
W 0.262490009	0.7866344480526124	0.01179	 0 0 0
O 0.226970003	0.01735439843058434	0.00367	 0 0 0
O 0.773030013	0.9826456359573124	0.996330033	 0 0 0
O 0.273029981	0.48264559188231987	0.503669967	 0 0 0
O 0.726969987	0.5173543901926726	0.49633	 0 0 0
O 0.773030013	0.01735439843058434	0.49633	 0 0 0
O 0.226970003	0.9826456359573124	0.503669967	 0 0 0
O 0.726969987	0.48264559188231987	0.996330033	 0 0 0
O 0.273029981	0.5173543901926726	0.00367	 0 0 0
O 0.503409975	0.226370014	0.47421801468494007	 0 0 0
O 0.496590025	0.773630017	0.5257819797303667	 0 0 0
O 0.996590025	0.273629986	0.9742180274397905	 0 0 0
O 0.003409982	0.726369952	0.025782019873113734	 0 0 0
O 0.496590025	0.226370014	0.025782019873113734	 0 0 0
O 0.503409975	0.773630017	0.9742180274397905	 0 0 0
O 0.003409982	0.273629986	0.5257819797303667	 0 0 0
O 0.996590025	0.726369952	0.47421801468494007	 0 0 0
O 0.7242180616034805	0.244840003	0.744820023	 0 0 0
O 0.27578200556020954	0.755159967	0.255179993	 0 0 0
O 0.7757819658118263	0.255159997	0.244820007	 0 0 0
O 0.224218031106714	0.744840003	0.755179977	 0 0 0
O 0.27578200556020954	0.244840003	0.755179977	 0 0 0
O 0.7242180616034805	0.755159967	0.244820007	 0 0 0
O 0.224218031106714	0.255159997	0.255179993	 0 0 0
O 0.7757819658118263	0.744840003	0.744820023	 0 0 0

K_POINTS automatic
6 6 6 0 0 0
