&CONTROL
    calculation   = 'scf'
    restart_mode  = 'from_scratch'
    prefix        = 'Landau_7'
    pseudo_dir    = '/cluster/scratch/mnoe/QE/pps'
    outdir        = './'
/
&SYSTEM
    ibrav       = 0
    nat         = 16
    ntyp        = 2
    ecutwfc     = 120
    occupations = 'smearing'
    degauss     = 7.35d-4
    tot_charge  = -0.5
/
&ELECTRONS
    conv_thr    = 1.0d-8
    diagonalization = 'david'
/

CELL_PARAMETERS angstrom
   5.212794858   0.000000000   0.000000000
   0.000000000   5.212794858   0.000000000
   0.000000000   0.000000000   7.717159864

ATOMIC_SPECIES
W 183.84 W_ONCV_LDA-4.0.upf
O 15.9994 O_ONCV_LDA-3.0.upf

ATOMIC_POSITIONS crystal
W      0.24999999999998215	0.24999999999996825	0.2157435169383209	
W      0.7500000229999844	0.7500000229999941	0.7842564980610024	
W      0.7500000230000052	0.7500000230000136	0.28425649806167874	
W      0.2499999999999789	0.25000000000001005	0.7157435019389976	
O     0.24999999999992426	0.24999999999997602	0.4871727574951231	
O     0.7500000229999979	0.7500000230000903	0.5128272425059173	
O     0.7500000229999642	0.7500000230000053	0.01282725550487828	
O     0.2499999999999352	0.25000000000001504	0.9871727574940804	
O      0.46169786868811064	0.5383020853118692	0.2500000000000117	
O      0.5383021313193612	0.46169791468064725	0.7499999999999996	
O      0.038302114311964064	0.9616979146879973	0.25000000000000117	
O      0.961697822680741	0.03830214831928702	0.7500000000000572	
O      0.9616979146880424	0.46169786868803203	0.25000000000004396	
O      0.03830214831935564	0.5383021313193546	0.7499999999999931	
O      0.5383020853119241	0.038302114311938286	0.24999999999996683	
O      0.46169791468074584	0.9616978226807275	0.7499999999999286	

K_POINTS automatic
6 6 6 0 0 0
