
&CONTROL
    calculation   = 'vc-relax'
    restart_mode  = 'from_scratch'
    prefix        = 'Landau_23'
    pseudo_dir    = '/cluster/scratch/mnoe/QE/pps'
    outdir        = './'
    forc_conv_thr = 1.0d-7
    etot_conv_thr = 1.0d-7

/
&SYSTEM
    ibrav       = 0
    nat         = 32
    ntyp        = 2
    ecutwfc     = 120
    occupations = 'smearing'
    degauss     = 7.35d-4
    tot_charge  = -0.0
/
&ELECTRONS
    conv_thr    = 1.0d-8
    diagonalization = 'david'
/


&IONS
ion_dynamics = 'bfgs'
/

&CELL
cell_dynamics = 'bfgs'
cell_dofree = 'all'
/
CELL_PARAMETERS angstrom
        7.3236460686         0.0000000000         0.0000000000
        0.0000000000         7.3236460686         0.0000000000
        0.0000000000         0.0000000000         7.7495899200

ATOMIC_SPECIES
W 183.84 W_ONCV_LDA-4.0.upf
O 15.9994 O_ONCV_LDA-3.0.upf

ATOMIC_POSITIONS crystal
W 0.240030003         0.239509993         0.218119991 0 0 0
W 0.759969997         0.760490023         0.218119991 0 0 0
W 0.239509993         0.759969997         0.781880024 0 0 0
W 0.760490023         0.240030003         0.781880024 0 0 0
W 0.259970013         0.739510009         0.281880024 0 0 0
W 0.740029971         0.260490007         0.281880024 0 0 0
W 0.260490007         0.259970013         0.718119976 0 0 0
W 0.739510009         0.740029971         0.718119976 0 0 0
O 0.228750010         0.228850013         0.491670026 0 0 0
O 0.771250007         0.771149987         0.491670026 0 0 0
O 0.228850013         0.771250007         0.508329974 0 0 0
O 0.771149987         0.228750010         0.508329974 0 0 0
O 0.271250007         0.728849981         0.008329987 0 0 0
O 0.728749961         0.271149987         0.008329987 0 0 0
O 0.271149987         0.271250007         0.991670026 0 0 0
O 0.728849981         0.728749961         0.991670026 0 0 0
O 0.199410008         0.497100001         0.267969989 0 0 0
O 0.800589976         0.502899999         0.267969989 0 0 0
O 0.497100001         0.800589976         0.732030011 0 0 0
O 0.502899999         0.199410008         0.732030011 0 0 0
O 0.300589976         0.997100001         0.232030011 0 0 0
O 0.699409992         0.002900005         0.232030011 0 0 0
O 0.002900005         0.300589976         0.767969989 0 0 0
O 0.997100001         0.699409992         0.767969989 0 0 0
O 0.995570005         0.199410008         0.224619992 0 0 0
O 0.004429996         0.800589976         0.224619992 0 0 0
O 0.199410008         0.004429996         0.775380024 0 0 0
O 0.800589976         0.995570005         0.775380024 0 0 0
O 0.504429995         0.699409992         0.275380024 0 0 0
O 0.495569940         0.300589976         0.275380024 0 0 0
O 0.300589976         0.504429995         0.724619976 0 0 0
O 0.699409992         0.495569940         0.724619976 0 0 0

K_POINTS automatic
6 6 6 0 0 0
