&CONTROL
    calculation   = 'scf'
    restart_mode  = 'from_scratch'
    prefix        = 'Landau_0'
    pseudo_dir    = '/cluster/scratch/mnoe/QE/pps'
    outdir        = './'
/
&SYSTEM
    ibrav       = 0
    nat         = 32
    ntyp        = 2
    ecutwfc     = 120
    occupations = 'smearing'
    degauss     = 7.35d-4
    tot_charge  = -0.84
/
&ELECTRONS
    conv_thr    = 1.0d-8
    diagonalization = 'david'
/

CELL_PARAMETERS angstrom
   7.323646069   0.000000000   0.000000000
   0.000000000   7.749589920   0.000000000
   0.000000000   0.000000000   7.323646069

ATOMIC_SPECIES
W 183.84 W_ONCV_LDA-4.0.upf
O 15.9994 O_ONCV_LDA-3.0.upf

ATOMIC_POSITIONS crystal
W 0.25	0.281860003	0.25	
W 0.75	0.718139997	0.25	
W 0.25	0.218140012	0.75	
W 0.75	0.781859972	0.75	
W 0.75	0.281860003	0.75	
W 0.25	0.718139997	0.75	
W 0.75	0.218140012	0.25	
W 0.25	0.781859972	0.25	
O 0.25	0.00832	0.25	
O 0.75	0.991680023	0.25	
O 0.25	0.491679992	0.75	
O 0.75	0.508319977	0.75	
O 0.75	0.00832	0.75	
O 0.25	0.991680023	0.75	
O 0.75	0.491679992	0.25	
O 0.25	0.508319977	0.25	
O 0.5	0.25	0.6995400039999999	
O 0.5	0.749999985	0.800459963	
O 0.0	0.25	1.199540037	
O 0.0	0.749999985	0.300460012	
O 0.5	0.25	0.300460012	
O 0.5	0.749999985	1.199540037	
O 0.0	0.25	0.800459963	
O 0.0	0.749999985	0.6995400039999999	
O 0.699540037	0.25	1.0	
O 0.300459996	0.749999985	0.5	
O 0.800459963	0.25	0.5	
O 0.19954002	0.749999985	1.0	
O 0.300459996	0.25	1.0	
O 0.699540037	0.749999985	0.5	
O 0.19954002	0.25	0.5	
O 0.800459963	0.749999985	1.0	

K_POINTS automatic
6 6 6 0 0 0
