
&CONTROL
    calculation   = 'vc-relax'
    restart_mode  = 'from_scratch'
    prefix        = 'Landau_40'
    pseudo_dir    = '/cluster/scratch/mnoe/QE/pps'
    outdir        = './'
    forc_conv_thr = 1.0d-7
    etot_conv_thr = 1.0d-7

/
&SYSTEM
    ibrav       = 0
    nat         = 32
    ntyp        = 2
    ecutwfc     = 120
    occupations = 'smearing'
    degauss     = 7.35d-4
    tot_charge  = -0.0
/
&ELECTRONS
    conv_thr    = 1.0d-8
    diagonalization = 'david'
/


&IONS
ion_dynamics = 'bfgs'
/

&CELL
cell_dynamics = 'bfgs'
cell_dofree = 'all'
/
CELL_PARAMETERS angstrom
        7.3236460686         0.0000000000         0.0000000000
        0.0000000000         7.7495899200         0.0000000000
        0.0000000000         0.0000000000         7.3236460686

ATOMIC_SPECIES
W 183.84 W_ONCV_LDA-4.0.upf
O 15.9994 O_ONCV_LDA-3.0.upf

ATOMIC_POSITIONS crystal
W       0.2315	0.29544398860000004	0.017470001	 0 0 0
W       0.768499983	0.7045560114	0.982530022	 0 0 0
W       0.2685	0.2045560084	0.517470011	 0 0 0
W       0.731500017	0.7954439576	0.482529989	 0 0 0
W      0.768499983	0.29544398860000004	0.482529989	 0 0 0
W      0.2315	0.7045560114	0.517470011	 0 0 0
W      0.731500017	0.2045560084	0.982530022	 0 0 0
W      0.2685	0.7954439576	0.017470001	 0 0 0
O       0.215869987	0.0340240012	0.00543	 0 0 0
O       0.784129964	0.9659760542	0.994569993	 0 0 0
O       0.284129997	0.46597598600000006	0.505429974	 0 0 0
O       0.715870036	0.5340240202000001	0.494569993	 0 0 0
O       0.784129964	0.0340240012	0.494569993	 0 0 0
O       0.215869987	0.9659760542	0.505429974	 0 0 0
O       0.715870036	0.46597598600000006	0.994569993	 0 0 0
O       0.284129997	0.5340240202000001	0.00543	 0 0 0
O    0.505060008	0.214990001	0.5197520520000001	 0 0 0
O    0.494939992	0.785009999	0.48024799299999993	 0 0 0
O    0.994939959	0.285009969	1.0197520274	 0 0 0
O    0.005059958	0.714990031	-0.019751983200000003	 0 0 0
O   0.494939992	0.214990001	-0.019751983200000003	 0 0 0
O   0.505060008	0.785009999	1.0197520274	 0 0 0
O   0.005059958	0.285009969	0.48024799299999993	 0 0 0
O   0.994939959	0.714990031	0.5197520520000001	 0 0 0
O   0.7697521246	0.242360002	0.742330014	 0 0 0
O   0.23024800560000003	0.757640029	0.257669986	 0 0 0
O   0.7302479533999999	0.257639998	0.242330079	 0 0 0
O   0.2697520692	0.742360002	0.757669986	 0 0 0
O   0.23024800560000003	0.242360002	0.757669986	 0 0 0
O   0.7697521246	0.757640029	0.242330079	 0 0 0
O   0.2697520692	0.257639998	0.257669986	 0 0 0
O   0.7302479533999999	0.742360002	0.742330014	 0 0 0

K_POINTS automatic
6 6 6 0 0 0
