
&CONTROL
    calculation   = 'vc-relax'
    restart_mode  = 'from_scratch'
    prefix        = 'Landau_40'
    pseudo_dir    = '/cluster/scratch/mnoe/QE/pps'
    outdir        = './'
    forc_conv_thr = 1.0d-7
    etot_conv_thr = 1.0d-7

/
&SYSTEM
    ibrav       = 0
    nat         = 32
    ntyp        = 2
    ecutwfc     = 120
    occupations = 'smearing'
    degauss     = 7.35d-4
    tot_charge  = -0.0
/
&ELECTRONS
    conv_thr    = 1.0d-8
    diagonalization = 'david'
/


&IONS
ion_dynamics = 'bfgs'
/

&CELL
cell_dynamics = 'bfgs'
cell_dofree = 'all'
/
CELL_PARAMETERS angstrom
        7.3236460686         0.0000000000         0.0000000000
        0.0000000000         7.7495899200         0.0000000000
        0.0000000000         0.0000000000         7.3236460686

ATOMIC_SPECIES
W 183.84 W_ONCV_LDA-4.0.upf
O 15.9994 O_ONCV_LDA-3.0.upf

ATOMIC_POSITIONS crystal
W 0.2315	0.26594061276766645	0.017470001	 0 0 0
W 0.76849989837801	0.7340593872323335	0.982530022	 0 0 0
W 0.2685	0.23405940752120763	0.517470011	 0 0 0
W 0.73149993237801	0.7659407457227723	0.482529989	 0 0 0
W 0.76849989837801	0.26594061276766645	0.482529989	 0 0 0
W 0.2315	0.7340593872323335	0.517470011	 0 0 0
W 0.73149993237801	0.23405940752120763	0.982530022	 0 0 0
W 0.2685	0.7659407457227723	0.017470001	 0 0 0
O 0.215869987	0.003983085988283326	0.00543	 0 0 0
O 0.78412987937801	0.9960168259453548	0.994569993	 0 0 0
O 0.284129997	0.4960169589004605	0.505429974	 0 0 0
O 0.71586995137801	0.5039831740546452	0.494569993	 0 0 0
O 0.78412987937801	0.003983085988283326	0.494569993	 0 0 0
O 0.215869987	0.9960168259453548	0.505429974	 0 0 0
O 0.71586995137801	0.4960169589004605	0.994569993	 0 0 0
O 0.284129997	0.5039831740546452	0.00543	 0 0 0
O 0.505060008	0.214990001	0.48846604537457183	 0 0 0
O 0.494939992	0.7850100783331158	0.5115340961582824	 0 0 0
O 0.994939959	0.285009969	0.9884660783745718	 0 0 0
O 0.005059958	0.7149901103331158	0.011533822536945543	 0 0 0
O 0.494939992	0.214990001	0.011533822536945543	 0 0 0
O 0.505060008	0.7850100783331158	0.9884660783745718	 0 0 0
O 0.005059958	0.285009969	0.5115340961582824	 0 0 0
O 0.994939959	0.7149901103331158	0.48846604537457183	 0 0 0
O 0.7384659884637076	0.242360002	0.74232992937801	 0 0 0
O 0.2615338700034379	0.7576401083331158	0.257669986	 0 0 0
O 0.7615341807802724	0.257639998	0.242330079	 0 0 0
O 0.23846606137457182	0.7423600813331157	0.75766990137801	 0 0 0
O 0.2615338700034379	0.242360002	0.75766990137801	 0 0 0
O 0.7384659884637076	0.7576401083331158	0.242330079	 0 0 0
O 0.23846606137457182	0.257639998	0.257669986	 0 0 0
O 0.7615341807802724	0.7423600813331157	0.74232992937801	 0 0 0

K_POINTS automatic
6 6 6 0 0 0
