
&CONTROL
    calculation   = 'vc-relax'
    restart_mode  = 'from_scratch'
    prefix        = 'Landau_12'
    pseudo_dir    = '/cluster/scratch/mnoe/QE/pps'
    outdir        = './'
    forc_conv_thr = 1.0d-7
    etot_conv_thr = 1.0d-7

/
&SYSTEM
    ibrav       = 0
    nat         = 32
    ntyp        = 2
    ecutwfc     = 120
    occupations = 'smearing'
    degauss     = 7.35d-4
    tot_charge  = -0.0
/
&ELECTRONS
    conv_thr    = 1.0d-8
    diagonalization = 'david'
/


&IONS
ion_dynamics = 'bfgs'
/

&CELL
cell_dynamics = 'bfgs'
cell_dofree = 'all'
/
CELL_PARAMETERS angstrom
        7.3236460686         0.0000000000         0.0000000000
        0.0000000000         7.7495899200         0.0000000000
        0.0000000000         0.0000000000         7.3236460686

ATOMIC_SPECIES
W 183.84 W_ONCV_LDA-4.0.upf
O 15.9994 O_ONCV_LDA-3.0.upf

ATOMIC_POSITIONS crystal
W 0.244450008	0.28294604264872003	0.00524	 0 0 0
W 0.755550008	0.71705395735128	0.99475999	 0 0 0
W 0.255549992	0.21705397091217998	0.50524001	 0 0 0
W 0.744449992	0.78294601164872	0.494760022	 0 0 0
W 0.755550008	0.28294604264872003	0.494760022	 0 0 0
W 0.244450008	0.71705395735128	0.50524001	 0 0 0
W 0.744449992	0.21705397091217998	0.99475999	 0 0 0
W 0.255549992	0.78294601164872	0.00524	 0 0 0
O 0.239759998	0.01037503489594	0.00163	 0 0 0
O 0.760240018	0.98962499069444	0.998369989	 0 0 0
O 0.260240018	0.4896249567203	0.501630011	 0 0 0
O 0.739759982	0.51037501525384	0.498369989	 0 0 0
O 0.760240018	0.01037503489594	0.498369989	 0 0 0
O 0.239759998	0.98962499069444	0.501630011	 0 0 0
O 0.739759982	0.4896249567203	0.998369989	 0 0 0
O 0.260240018	0.51037501525384	0.00163	 0 0 0
O 0.501519972	0.239500008	0.4551534572376	 0 0 0
O 0.498480028	0.760499992	0.5448465159985	 0 0 0
O 0.998480028	0.260500023	0.95515348563248	 0 0 0
O 0.001519918	0.739499977	0.04484656298376	 0 0 0
O 0.498480028	0.239500008	0.04484656298376	 0 0 0
O 0.501519972	0.760499992	0.95515348563248	 0 0 0
O 0.001519918	0.260500023	0.5448465159985	 0 0 0
O 0.998480028	0.739499977	0.4551534572376	 0 0 0
O 0.70515349340362	0.247710011	0.747699987	 0 0 0
O 0.29484654736752003	0.752290035	0.252300029	 0 0 0
O 0.79484651283248	0.252290004	0.247699971	 0 0 0
O 0.20515347333354	0.747709996	0.752300013	 0 0 0
O 0.29484654736752003	0.247710011	0.752300013	 0 0 0
O 0.70515349340362	0.752290035	0.247699971	 0 0 0
O 0.20515347333354	0.252290004	0.252300029	 0 0 0
O 0.79484651283248	0.747709996	0.747699987	 0 0 0

K_POINTS automatic
6 6 6 0 0 0
