
&CONTROL
    calculation   = 'vc-relax'
    restart_mode  = 'from_scratch'
    prefix        = 'Landau_12'
    pseudo_dir    = '/cluster/scratch/mnoe/QE/pps'
    outdir        = './'
    forc_conv_thr = 1.0d-7
    etot_conv_thr = 1.0d-7

/
&SYSTEM
    ibrav       = 0
    nat         = 32
    ntyp        = 2
    ecutwfc     = 120
    occupations = 'smearing'
    degauss     = 7.35d-4
    tot_charge  = -0.0
/
&ELECTRONS
    conv_thr    = 1.0d-8
    diagonalization = 'david'
/


&IONS
ion_dynamics = 'bfgs'
/

&CELL
cell_dynamics = 'bfgs'
cell_dofree = 'all'
/
CELL_PARAMETERS angstrom
        7.3236460686         0.0000000000         0.0000000000
        0.0000000000         7.7495899200         0.0000000000
        0.0000000000         0.0000000000         7.3236460686

ATOMIC_SPECIES
W 183.84 W_ONCV_LDA-4.0.upf
O 15.9994 O_ONCV_LDA-3.0.upf

ATOMIC_POSITIONS crystal
W 0.244450008	0.2806669815495716	0.00524	 0 0 0
W 0.7555500016583093	0.7193330184504284	0.99475999	 0 0 0
W 0.255549992	0.2193330338467841	0.50524001	 0 0 0
W 0.7444499856583092	0.7806669628365973	0.494760022	 0 0 0
W 0.7555500016583093	0.2806669815495716	0.494760022	 0 0 0
W 0.244450008	0.7193330184504284	0.50524001	 0 0 0
W 0.7444499856583092	0.2193330338467841	0.99475999	 0 0 0
W 0.255549992	0.7806669628365973	0.00524	 0 0 0
O 0.239759998	0.007994985576135146	0.00163	 0 0 0
O 0.7602400116583092	0.9920050291003958	0.998369989	 0 0 0
O 0.260240018	0.49200501038742156	0.501630011	 0 0 0
O 0.7397599756583093	0.5079949708996042	0.498369989	 0 0 0
O 0.7602400116583092	0.007994985576135146	0.498369989	 0 0 0
O 0.239759998	0.9920050291003958	0.501630011	 0 0 0
O 0.7397599756583093	0.49200501038742156	0.998369989	 0 0 0
O 0.260240018	0.5079949708996042	0.00163	 0 0 0
O 0.501519972	0.239500008	0.45245717618199766	 0 0 0
O 0.498480028	0.760499997945335	0.5475428038977393	 0 0 0
O 0.998480028	0.260500023	0.9524572091819977	 0 0 0
O 0.001519918	0.739499982945335	0.04754282872004355	 0 0 0
O 0.498480028	0.239500008	0.04754282872004355	 0 0 0
O 0.501519972	0.760499997945335	0.9524572091819977	 0 0 0
O 0.001519918	0.260500023	0.5475428038977393	 0 0 0
O 0.998480028	0.739499982945335	0.45245717618199766	 0 0 0
O 0.7024572024439513	0.247710011	0.7476999806583092	 0 0 0
O 0.29754281747631156	0.752290040945335	0.252300029	 0 0 0
O 0.7975428102394301	0.252290004	0.247699971	 0 0 0
O 0.2024571921819977	0.747710001945335	0.7523000066583093	 0 0 0
O 0.29754281747631156	0.247710011	0.7523000066583093	 0 0 0
O 0.7024572024439513	0.752290040945335	0.247699971	 0 0 0
O 0.2024571921819977	0.252290004	0.252300029	 0 0 0
O 0.7975428102394301	0.747710001945335	0.7476999806583092	 0 0 0

K_POINTS automatic
6 6 6 0 0 0
