
&CONTROL
    calculation   = 'vc-relax'
    restart_mode  = 'from_scratch'
    prefix        = 'Landau_14'
    pseudo_dir    = '/cluster/scratch/mnoe/QE/pps'
    outdir        = './'
    forc_conv_thr = 1.0d-7
    etot_conv_thr = 1.0d-7

/
&SYSTEM
    ibrav       = 0
    nat         = 32
    ntyp        = 2
    ecutwfc     = 120
    occupations = 'smearing'
    degauss     = 7.35d-4
    tot_charge  = -0.0
/
&ELECTRONS
    conv_thr    = 1.0d-8
    diagonalization = 'david'
/


&IONS
ion_dynamics = 'bfgs'
/

&CELL
cell_dynamics = 'bfgs'
cell_dofree = 'all'
/
CELL_PARAMETERS angstrom
        7.3236460686         0.0000000000         0.0000000000
        0.0000000000         7.7495899200         0.0000000000
        0.0000000000         0.0000000000         7.3236460686

ATOMIC_SPECIES
W 183.84 W_ONCV_LDA-4.0.upf
O 15.9994 O_ONCV_LDA-3.0.upf

ATOMIC_POSITIONS crystal
W 0.25	0.27628825203772195	0.0	 0 0 0
W 0.7499999703824929	0.7237117479622781	0.0	 0 0 0
W 0.25	0.22371176481337218	0.5	 0 0 0
W 0.7499999703824929	0.776288278421642	0.5	 0 0 0
W 0.7499999703824929	0.27628825203772195	0.5	 0 0 0
W 0.25	0.7237117479622781	0.5	 0 0 0
W 0.7499999703824929	0.22371176481337218	0.0	 0 0 0
W 0.25	0.776288278421642	0.0	 0 0 0
O 0.25	0.006802089799581631	0.0	 0 0 0
O 0.7499999703824929	0.9931978943274402	0.0	 0 0 0
O 0.25	0.49319792071136037	0.5	 0 0 0
O 0.7499999703824929	0.5068021056725598	0.5	 0 0 0
O 0.7499999703824929	0.006802089799581631	0.5	 0 0 0
O 0.25	0.9931978943274402	0.5	 0 0 0
O 0.7499999703824929	0.49319792071136037	0.0	 0 0 0
O 0.25	0.5068021056725598	0.0	 0 0 0
O 0.5	0.25	0.4631640313855423	 0 0 0
O 0.5	0.750000012766413	0.5368359967005661	 0 0 0
O 0.0	0.25	0.9631640643855423	 0 0 0
O 0.0	0.750000012766413	0.03683593278382013	 0 0 0
O 0.5	0.25	0.03683593278382013	 0 0 0
O 0.5	0.750000012766413	0.9631640643855423	 0 0 0
O 0.0	0.25	0.5368359967005661	 0 0 0
O 0.0	0.750000012766413	0.4631640313855423	 0 0 0
O 0.713164032916941	0.25	0.7499999703824929	 0 0 0
O 0.2868359389969505	0.750000012766413	0.25	 0 0 0
O 0.7868360263180734	0.25	0.25	 0 0 0
O 0.2131640473855423	0.750000012766413	0.7499999703824929	 0 0 0
O 0.2868359389969505	0.25	0.7499999703824929	 0 0 0
O 0.713164032916941	0.750000012766413	0.25	 0 0 0
O 0.2131640473855423	0.25	0.25	 0 0 0
O 0.7868360263180734	0.750000012766413	0.7499999703824929	 0 0 0

K_POINTS automatic
6 6 6 0 0 0
