&CONTROL
    calculation   = 'scf'
    restart_mode  = 'from_scratch'
    prefix        = 'Landau_2'
    pseudo_dir    = '/cluster/scratch/mnoe/QE/pps'
    outdir        = './'
/
&SYSTEM
    ibrav       = 0
    nat         = 32
    ntyp        = 2
    ecutwfc     = 120
    occupations = 'smearing'
    degauss     = 7.35d-4
    tot_charge  = -0.6
/
&ELECTRONS
    conv_thr    = 1.0d-8
    diagonalization = 'david'
/

CELL_PARAMETERS angstrom
   7.330194307   0.000000000   0.000000000
   0.000000000   7.741104983   0.000000000
   0.000000000   0.000000000   7.330194307

ATOMIC_SPECIES
W 183.84 W_ONCV_LDA-4.0.upf
O 15.9994 O_ONCV_LDA-3.0.upf

ATOMIC_POSITIONS crystal
W 0.251729988	0.2814507246656011	-0.998180053	
W 0.7481800507179928	0.7185492753343989	-0.998270045	
W 0.248270012	0.21854929047702437	-0.498180004	
W 0.7518199777179928	0.7814507290869902	-0.498270012	
W 0.7482700427179928	0.2814507246656011	-0.501819996	
W 0.251819996	0.7185492753343989	-0.501729988	
W 0.7517299857179928	0.21854929047702437	-1.00181998	
W 0.248180004	0.7814507290869902	-1.0017299880000001	
O 0.253700014	0.008213033129820118	-0.996319977	
O 0.7463199747179927	0.9917869768750454	-0.996299986	
O 0.246300002	0.4917869812964344	-0.49631999299999996	
O 0.7536799887179928	0.5082130231249546	-0.496300002	
O 0.7462999837179928	0.008213033129820118	-0.503679991	
O 0.253679991	0.9917869768750454	-0.503700014	
O 0.7537000447179928	0.4917869812964344	-1.003679991	
O 0.246319993	0.5082130231249546	-1.0037000470000002	
O 0.49923002	0.254410001	-0.5495402546596092	
O 0.500499971	0.7468799841393818	-0.4504597246337507	
O 0.000769973	0.245589999	-1.0495402546596093	
O 0.999500029	0.7531200201393817	-0.9504597173339033	
O 0.50076998	0.254410001	-0.9504597173339033	
O 0.499499997	0.7468799841393818	-1.0495402546596093	
O 0.999230053	0.245589999	-0.4504597246337507	
O 0.000499994	0.7531200201393817	-0.5495402546596092	
O 0.700459710915758	0.246879998	-0.25049999628200725	
O 0.299540252377602	0.7455900011393818	-0.75076998	
O 0.7995402616482565	0.253120002	-0.750499971	
O 0.2004597293403907	0.7544100031393818	-0.25076997528200723	
O 0.299540252377602	0.246879998	-1.2495000312820073	
O 0.700459710915758	0.7455900011393818	-0.7492300199999999	
O 0.2004597293403907	0.253120002	-0.749499997	
O 0.7995402616482565	0.7544100031393818	-1.2492300552820073	

K_POINTS automatic
6 6 6 0 0 0
