
&CONTROL
    calculation   = 'vc-relax'
    restart_mode  = 'from_scratch'
    prefix        = 'Landau_18'
    pseudo_dir    = '/cluster/scratch/mnoe/QE/pps'
    outdir        = './'
    forc_conv_thr = 1.0d-7
    etot_conv_thr = 1.0d-7

/
&SYSTEM
    ibrav       = 0
    nat         = 32
    ntyp        = 2
    ecutwfc     = 120
    occupations = 'smearing'
    degauss     = 7.35d-4
    tot_charge  = -0.0
/
&ELECTRONS
    conv_thr    = 1.0d-8
    diagonalization = 'david'
/


&IONS
ion_dynamics = 'bfgs'
/

&CELL
cell_dynamics = 'bfgs'
cell_dofree = 'all'
/
CELL_PARAMETERS angstrom
        7.3236460686         0.0000000000         0.0000000000
        0.0000000000         7.7495899200         0.0000000000
        0.0000000000         0.0000000000         7.3236460686

ATOMIC_SPECIES
W 183.84 W_ONCV_LDA-4.0.upf
O 15.9994 O_ONCV_LDA-3.0.upf

ATOMIC_POSITIONS crystal
W 0.23906397414894148	0.26790994951066777	0.005082100149796471	 0 0 0
W 0.7556994836330896	0.7320900504893322	-0.010627279234381483	 0 0 0
W 0.2609360258510585	0.23209007012393665	0.5050821020981088	 0 0 0
W 0.7443003715065736	0.7679100621834128	0.4893727033806819	 0 0 0
W 0.760935942555305	0.26790994951066777	0.49491789790189117	 0 0 0
W 0.2443004395155721	0.7320900504893322	0.5106272966193182	 0 0 0
W 0.7390639125843582	0.23209007012393665	-0.005082089808756341	 0 0 0
W 0.25569956048442793	0.7679100621834128	0.010627289575421613	 0 0 0
O 0.2338409939740729	0.0045195917205923305	-0.002673677177842681	 0 0 0
O 0.764531318216123	-0.0045196660472906006	-0.007556449719801775	 0 0 0
O 0.26615899388644604	0.4954804466254545	0.4973263061865718	 0 0 0
O 0.7354685324274366	0.5045196660472906	0.49244354533448415	 0 0 0
O 0.7661589087922498	0.0045195917205923305	0.5026736813742055	 0 0 0
O 0.2354685806535766	-0.0045196660472906006	0.5075564422262933	 0 0 0
O 0.7338409418513097	0.4954804466254545	0.0026736740305696085	 0 0 0
O 0.2645314072069423	0.5045196660472906	0.007556446572528703	 0 0 0
O 0.5034245341699244	0.23311413145887988	0.483650629556519	 0 0 0
O 0.4988744693081811	0.7645959171847421	0.5163494903854352	 0 0 0
O -0.0034245392655110683	0.2668858550528069	0.983650662556519	 0 0 0
O 0.0011255179528547902	0.7354042279721025	0.016349256674549888	 0 0 0
O 0.49657546583007556	0.23311413145887988	0.016349256674549888	 0 0 0
O 0.5011255306918189	0.7645959171847421	0.983650662556519	 0 0 0
O 0.003424511689402363	0.2668858550528069	0.5163494903854352	 0 0 0
O -0.0011255455289634951	0.7354042279721025	0.483650629556519	 0 0 0
O 0.7336505837682397	0.25181192545823144	0.7473097690175501	 0 0 0
O 0.2663492962898059	0.7586820531512102	0.2542068498090229	 0 0 0
O 0.7663495645391101	0.24818807004566487	0.2473098674501896	 0 0 0
O 0.23365064555651904	0.7413180923053746	0.7542067806010622	 0 0 0
O 0.2663492962898059	0.25181192545823144	0.7526900951143204	 0 0 0
O 0.7336505837682397	0.7586820531512102	0.2457931794156558	 0 0 0
O 0.23365064555651904	0.24818807004566487	0.2526901617744891	 0 0 0
O 0.7663495645391101	0.7413180923053746	0.7457930835308083	 0 0 0

K_POINTS automatic
6 6 6 0 0 0
