
&CONTROL
    calculation   = 'vc-relax'
    restart_mode  = 'from_scratch'
    prefix        = 'Landau_31'
    pseudo_dir    = '/cluster/scratch/mnoe/QE/pps'
    outdir        = './'
    forc_conv_thr = 1.0d-7
    etot_conv_thr = 1.0d-7

/
&SYSTEM
    ibrav       = 0
    nat         = 32
    ntyp        = 2
    ecutwfc     = 120
    occupations = 'smearing'
    degauss     = 7.35d-4
    tot_charge  = -0.0
/
&ELECTRONS
    conv_thr    = 1.0d-8
    diagonalization = 'david'
/


&IONS
ion_dynamics = 'bfgs'
/

&CELL
cell_dynamics = 'bfgs'
cell_dofree = 'all'
/
CELL_PARAMETERS angstrom
        7.3236460686         0.0000000000         0.0000000000
        0.0000000000         7.7495899200         0.0000000000
        0.0000000000         0.0000000000         7.3236460686

ATOMIC_SPECIES
W 183.84 W_ONCV_LDA-4.0.upf
O 15.9994 O_ONCV_LDA-3.0.upf

ATOMIC_POSITIONS crystal
W 0.25	0.27753870796277097	0.0	 0 0 0
W 0.7499999770294854	0.722461292037229	0.0	 0 0 0
W 0.25	0.22246130847288612	0.5	 0 0 0
W 0.7499999770294854	0.777538721468143	0.5	 0 0 0
W 0.7499999770294854	0.27753870796277097	0.5	 0 0 0
W 0.25	0.722461292037229	0.5	 0 0 0
W 0.7499999770294854	0.22246130847288612	0.0	 0 0 0
W 0.25	0.777538721468143	0.0	 0 0 0
O 0.25	0.007142751077635141	0.0	 0 0 0
O 0.7499999770294854	0.9928572417735645	0.0	 0 0 0
O 0.25	0.4928572552789365	0.5	 0 0 0
O 0.7499999770294854	0.5071427582264355	0.5	 0 0 0
O 0.7499999770294854	0.007142751077635141	0.5	 0 0 0
O 0.25	0.9928572417735645	0.5	 0 0 0
O 0.7499999770294854	0.4928572552789365	0.0	 0 0 0
O 0.25	0.5071427582264355	0.0	 0 0 0
O 0.5	0.25	0.46010642061244406	 0 0 0
O 0.5	0.7500000065348574	0.5398935937642422	 0 0 0
O 0.0	0.25	0.9601064536124441	 0 0 0
O 0.0	0.7500000065348574	0.03989355518915536	 0 0 0
O 0.5	0.25	0.03989355518915536	 0 0 0
O 0.5	0.7500000065348574	0.9601064536124441	 0 0 0
O 0.0	0.25	0.5398935937642422	 0 0 0
O 0.0	0.7500000065348574	0.46010642061244406	 0 0 0
O 0.7101064292062724	0.25	0.7499999770294854	 0 0 0
O 0.2898935564170413	0.7500000065348574	0.25	 0 0 0
O 0.7898936167347568	0.25	0.25	 0 0 0
O 0.2101064366124441	0.7500000065348574	0.7499999770294854	 0 0 0
O 0.2898935564170413	0.25	0.7499999770294854	 0 0 0
O 0.7101064292062724	0.7500000065348574	0.25	 0 0 0
O 0.2101064366124441	0.25	0.25	 0 0 0
O 0.7898936167347568	0.7500000065348574	0.7499999770294854	 0 0 0

K_POINTS automatic
6 6 6 0 0 0
