# Phonon frequency and phonon lifetime in meV 
# Q-point  Mode   Phonon freq (meV)   Phonon linewidth (meV)
        1     1     -0.20007908E-03      0.0000000000E+00
        1     2     -0.20007826E-03      0.0000000000E+00
        1     3     -0.90080438E-04      0.0000000000E+00
        1     4      0.28738734E+01      0.8053417717E-03
        1     5      0.15317732E+02      0.9309724214E-02
        1     6      0.24537238E+02      0.7776970307E-03
        1     7      0.24537238E+02      0.7776970307E-03
        1     8      0.30449010E+02      0.1625436815E+00
        1     9      0.30638606E+02      0.4468481405E-02
        1    10      0.30638606E+02      0.4468481405E-02
        1    11      0.36460553E+02      0.2301931854E-01
        1    12      0.36460553E+02      0.2301931854E-01
        1    13      0.39071308E+02      0.1889189826E-03
        1    14      0.39462775E+02      0.1314268076E-01
        1    15      0.39462775E+02      0.1314268076E-01
        1    16      0.45937768E+02      0.3786941901E-02
        1    17      0.45937768E+02      0.3786941901E-02
        1    18      0.57334509E+02      0.6340660034E-02
        1    19      0.79928584E+02      0.1802405887E-02
        1    20      0.79928584E+02      0.1802405887E-02
        1    21      0.87976846E+02      0.2901496772E-02
        1    22      0.92466468E+02      0.4549331359E-01
        1    23      0.94714229E+02      0.9678412150E-02
        1    24      0.12748969E+03      0.4883110225E-03
        2     1      0.16592572E+00      0.0000000000E+00
        2     2      0.16592572E+00      0.0000000000E+00
        2     3      0.32374143E+00      0.0000000000E+00
        2     4      0.28736133E+01      0.6144003628E-03
        2     5      0.15324883E+02      0.4431980206E-01
        2     6      0.24539908E+02      0.8031112539E-03
        2     7      0.24539908E+02      0.8031112539E-03
        2     8      0.30449240E+02      0.1677179127E+00
        2     9      0.30633132E+02      0.5347693942E-02
        2    10      0.30633132E+02      0.5347693942E-02
        2    11      0.36460798E+02      0.2271774422E-01
        2    12      0.36460798E+02      0.2271774422E-01
        2    13      0.39078893E+02      0.1733022743E-02
        2    14      0.39462299E+02      0.1296663454E-01
        2    15      0.39462299E+02      0.1296663454E-01
        2    16      0.45941154E+02      0.3851532708E-02
        2    17      0.45941154E+02      0.3851532708E-02
        2    18      0.57334411E+02      0.6248746751E-02
        2    19      0.79928081E+02      0.1709782241E-02
        2    20      0.79928081E+02      0.1709782241E-02
        2    21      0.87975814E+02      0.2795198546E-02
        2    22      0.92467411E+02      0.4097742968E-01
        2    23      0.94735778E+02      0.9671678205E-02
        2    24      0.12749069E+03      0.4882613319E-03
        3     1      0.33167049E+00      0.0000000000E+00
        3     2      0.33167049E+00      0.0000000000E+00
        3     3      0.64822175E+00      0.4705262866E-03
        3     4      0.28728328E+01      0.9875878108E-03
        3     5      0.15346280E+02      0.9794247451E-01
        3     6      0.24547908E+02      0.6259033476E-03
        3     7      0.24547908E+02      0.6259033476E-03
        3     8      0.30449932E+02      0.1395901525E+00
        3     9      0.30616731E+02      0.6728417556E-02
        3    10      0.30616731E+02      0.6728417556E-02
        3    11      0.36461532E+02      0.1981954307E-01
        3    12      0.36461532E+02      0.1981954307E-01
        3    13      0.39101594E+02      0.2650071783E-01
        3    14      0.39460879E+02      0.1149120530E-01
        3    15      0.39460879E+02      0.1149120530E-01
        3    16      0.45951292E+02      0.4124838686E-02
        3    17      0.45951292E+02      0.4124838686E-02
        3    18      0.57334116E+02      0.6152309110E-02
        3    19      0.79926573E+02      0.1795382113E-02
        3    20      0.79926573E+02      0.1795382113E-02
        3    21      0.87972717E+02      0.2910855617E-02
        3    22      0.92470651E+02      0.4579084770E-01
        3    23      0.94799942E+02      0.1132399512E-01
        3    24      0.12749370E+03      0.5210293274E-03
        4     1      0.49705368E+00      0.0000000000E+00
        4     2      0.49705368E+00      0.0000000000E+00
        4     3      0.97415556E+00     -0.3006231871E-03
        4     4      0.28715315E+01      0.1116976113E-02
        4     5      0.15381759E+02      0.1028363658E+00
        4     6      0.24561209E+02      0.6934145396E-03
        4     7      0.24561209E+02      0.6934145396E-03
        4     8      0.30451084E+02      0.1394132741E+00
        4     9      0.30589470E+02      0.8446226278E-02
        4    10      0.30589470E+02      0.8446226278E-02
        4    11      0.36462740E+02      0.1754027400E-01
        4    12      0.36462740E+02      0.1754027400E-01
        4    13      0.39139249E+02      0.1033137295E+00
        4    14      0.39458535E+02      0.1026352291E-01
        4    15      0.39458535E+02      0.1026352291E-01
        4    16      0.45968128E+02      0.5232273723E-02
        4    17      0.45968128E+02      0.5232273723E-02
        4    18      0.57333626E+02      0.6303242827E-02
        4    19      0.79924061E+02      0.1785139857E-02
        4    20      0.79924061E+02      0.1785139857E-02
        4    21      0.87967557E+02      0.2954913963E-02
        4    22      0.92477316E+02      0.7006362973E-01
        4    23      0.94905378E+02      0.1609520513E-01
        4    24      0.12749872E+03      0.5459551037E-03
        5     1      0.66189637E+00      0.1227892377E-04
        5     2      0.66189637E+00      0.1227892377E-04
        5     3      0.13022104E+01     -0.4934852534E-02
        5     4      0.28697085E+01      0.1342972397E-02
        5     5      0.15431049E+02      0.8239358435E-01
        5     6      0.24579761E+02      0.6995203433E-03
        5     7      0.24579761E+02      0.6995203433E-03
        5     8      0.30452691E+02      0.1385710043E+00
        5     9      0.30551457E+02      0.8768452545E-02
        5    10      0.30551457E+02      0.8768452545E-02
        5    11      0.36464403E+02      0.1494353271E-01
        5    12      0.36464403E+02      0.1494353271E-01
        5    13      0.39191593E+02      0.1828687090E+00
        5    14      0.39455305E+02      0.8746698508E-02
        5    15      0.39455305E+02      0.8746698508E-02
        5    16      0.45991570E+02      0.5895208838E-02
        5    17      0.45991570E+02      0.5895208838E-02
        5    18      0.57332940E+02      0.6227594027E-02
        5    19      0.79920548E+02      0.1707106683E-02
        5    20      0.79920548E+02      0.1707106683E-02
        5    21      0.87960337E+02      0.2975934242E-02
        5    22      0.92488978E+02      0.1828774205E+00
        5    23      0.95050163E+02      0.6010819390E-01
        5    24      0.12750575E+03      0.6406955305E-03
        6     1      0.82602180E+00      0.2771090549E-04
        6     2      0.82602180E+00      0.2771090549E-04
        6     3      0.16329864E+01     -0.5484720868E-02
        6     4      0.28673628E+01      0.1606887144E-02
        6     5      0.15493787E+02      0.7800989829E-01
        6     6      0.24603495E+02      0.7586715769E-03
        6     7      0.24603495E+02      0.7586715769E-03
        6     8      0.30454751E+02      0.1452690824E+00
        6     9      0.30502846E+02      0.8396316817E-02
        6    10      0.30502846E+02      0.8396316817E-02
        6    11      0.36466492E+02      0.1620284616E-01
        6    12      0.36466492E+02      0.1620284616E-01
        6    13      0.39258260E+02      0.2577938587E+00
        6    14      0.39451234E+02      0.9301646110E-02
        6    15      0.39451234E+02      0.9301646110E-02
        6    16      0.46021494E+02      0.5982105885E-02
        6    17      0.46021494E+02      0.5982105885E-02
        6    18      0.57332059E+02      0.6187529878E-02
        6    19      0.79916038E+02      0.1689042897E-02
        6    20      0.79916038E+02      0.1689042897E-02
        6    21      0.87951062E+02      0.3012357638E-02
        6    22      0.92507333E+02      0.4516397565E+00
        6    23      0.95232107E+02      0.2362514714E+00
        6    24      0.12751481E+03      0.9130877920E-03
        7     1      0.98925604E+00      0.1812796707E-03
        7     2      0.98925604E+00      0.1812796707E-03
        7     3      0.19669997E+01     -0.4908812731E-02
        7     4      0.28644930E+01      0.1044290478E-02
        7     5      0.15569528E+02      0.7449886716E-01
        7     6      0.24632317E+02      0.7336601955E-03
        7     7      0.24632317E+02      0.7336601955E-03
        7     8      0.30443832E+02      0.4896635868E-01
        7     9      0.30443832E+02      0.4896635868E-01
        7    10      0.30457258E+02      0.4896635868E-01
        7    11      0.36468974E+02      0.1523448523E-01
        7    12      0.36468974E+02      0.1523448523E-01
        7    13      0.39338789E+02      0.3185070760E+00
        7    14      0.39446382E+02      0.8786561575E-02
        7    15      0.39446382E+02      0.8786561575E-02
        7    16      0.46057744E+02      0.5079939775E-02
        7    17      0.46057744E+02      0.5079939775E-02
        7    18      0.57330984E+02      0.5435823007E-02
        7    19      0.79910535E+02      0.1688937715E-02
        7    20      0.79910535E+02      0.1688937715E-02
        7    21      0.87939735E+02      0.2969480459E-02
        7    22      0.92533956E+02      0.7237205485E+00
        7    23      0.95449004E+02      0.5051949302E+00
        7    24      0.12752590E+03      0.1685024726E-02
        8     1      0.11514287E+01      0.2421737123E-03
        8     2      0.11514287E+01      0.2421737123E-03
        8     3      0.23046697E+01     -0.1289086896E-01
        8     4      0.28610973E+01      0.9612811871E-03
        8     5      0.15657753E+02      0.6064079659E-01
        8     6      0.24666110E+02      0.8442028099E-03
        8     7      0.24666110E+02      0.8442028099E-03
        8     8      0.30374653E+02      0.7363175593E-02
        8     9      0.30374653E+02      0.7363175593E-02
        8    10      0.30460206E+02      0.1430723577E+00
        8    11      0.36471809E+02      0.1300820140E-01
        8    12      0.36471809E+02      0.1300820140E-01
        8    13      0.39432631E+02      0.1243821004E+00
        8    14      0.39440818E+02      0.1243821004E+00
        8    15      0.39440818E+02      0.1243821004E+00
        8    16      0.46100135E+02      0.5180912214E-02
        8    17      0.46100135E+02      0.5180912214E-02
        8    18      0.57329715E+02      0.5376595691E-02
        8    19      0.79904046E+02      0.1644162820E-02
        8    20      0.79904046E+02      0.1644162820E-02
        8    21      0.87926363E+02      0.2729544902E-02
        8    22      0.92570151E+02      0.8746128887E+00
        8    23      0.95698789E+02      0.7341751578E+00
        8    24      0.12753904E+03      0.3037867279E-02
        9     1      0.13123737E+01      0.3817664704E-03
        9     2      0.13123737E+01      0.3817664704E-03
        9     3      0.26463114E+01     -0.5906167836E-02
        9     4      0.28571739E+01      0.8243817750E-03
        9     5      0.15757894E+02      0.7198117761E-01
        9     6      0.24704730E+02      0.9836891296E-03
        9     7      0.24704730E+02      0.9836891296E-03
        9     8      0.30295587E+02      0.7416361926E-02
        9     9      0.30295587E+02      0.7416361926E-02
        9    10      0.30463586E+02      0.1572984341E+00
        9    11      0.36474954E+02      0.1256946404E-01
        9    12      0.36474954E+02      0.1256946404E-01
        9    13      0.39434618E+02      0.7259087535E-02
        9    14      0.39434618E+02      0.7259087535E-02
        9    15      0.39539157E+02      0.4209844815E+00
        9    16      0.46148457E+02      0.5569478707E-02
        9    17      0.46148457E+02      0.5569478707E-02
        9    18      0.57328254E+02      0.5491110266E-02
        9    19      0.79896577E+02      0.1611535727E-02
        9    20      0.79896577E+02      0.1611535727E-02
        9    21      0.87910954E+02      0.2765150433E-02
        9    22      0.92616894E+02      0.9930618661E+00
        9    23      0.95979590E+02      0.9506542137E+00
        9    24      0.12755424E+03      0.4070641140E-02
       10     1      0.14719296E+01      0.4543031308E-03
       10     2      0.14719296E+01      0.4543031308E-03
       10     3      0.28527203E+01      0.7687825969E-03
       10     4      0.29921312E+01     -0.5499182570E-02
       10     5      0.15869341E+02      0.7129588212E-01
       10     6      0.24748000E+02      0.1116716349E-02
       10     7      0.24748000E+02      0.1116716349E-02
       10     8      0.30206957E+02      0.7842538587E-02
       10     9      0.30206957E+02      0.7842538587E-02
       10    10      0.30467391E+02      0.1776570825E+00
       10    11      0.36478362E+02      0.1237826315E-01
       10    12      0.36478362E+02      0.1237826315E-01
       10    13      0.39427866E+02      0.7055419534E-02
       10    14      0.39427866E+02      0.7055419534E-02
       10    15      0.39657668E+02      0.4856526769E+00
       10    16      0.46202479E+02      0.5647749700E-02
       10    17      0.46202479E+02      0.5647749700E-02
       10    18      0.57326601E+02      0.5697622811E-02
       10    19      0.79888136E+02      0.1488018649E-02
       10    20      0.79888136E+02      0.1488018649E-02
       10    21      0.87893516E+02      0.2783184250E-02
       10    22      0.92674838E+02      0.1055859610E+01
       10    23      0.96289737E+02      0.1175990801E+01
       10    24      0.12757151E+03      0.4394829897E-02
       11     1      0.16299404E+01      0.5295110954E-03
       11     2      0.16299404E+01      0.5295110954E-03
       11     3      0.28477340E+01      0.2230447928E-03
       11     4      0.33422274E+01     -0.1857031623E-01
       11     5      0.15991460E+02      0.5755701327E-01
       11     6      0.24795711E+02      0.1143003638E-02
       11     7      0.24795711E+02      0.1143003638E-02
       11     8      0.30109131E+02      0.7171406265E-02
       11     9      0.30109131E+02      0.7171406265E-02
       11    10      0.30471611E+02      0.1709237872E+00
       11    11      0.36481986E+02      0.9820594523E-02
       11    12      0.36481986E+02      0.9820594523E-02
       11    13      0.39420649E+02      0.5655993697E-02
       11    14      0.39420649E+02      0.5655993697E-02
       11    15      0.39787401E+02      0.5211893203E+00
       11    16      0.46261951E+02      0.5302398939E-02
       11    17      0.46261951E+02      0.5302398939E-02
       11    18      0.57324758E+02      0.5757647497E-02
       11    19      0.79878732E+02      0.1448930909E-02
       11    20      0.79878732E+02      0.1448930909E-02
       11    21      0.87874059E+02      0.2886174669E-02
       11    22      0.92744347E+02      0.1026552987E+01
       11    23      0.96627728E+02      0.1325597302E+01
       11    24      0.12759088E+03      0.4973816143E-02
       12     1      0.17862561E+01      0.6550405948E-03
       12     2      0.17862561E+01      0.6550405948E-03
       12     3      0.28422123E+01     -0.3223300295E-04
       12     4      0.36965934E+01     -0.1995603790E-01
       12     5      0.16123607E+02      0.5775924662E-01
       12     6      0.24847609E+02      0.1132927469E-02
       12     7      0.24847609E+02      0.1132927469E-02
       12     8      0.30002522E+02      0.5982635274E-02
       12     9      0.30002522E+02      0.5982635274E-02
       12    10      0.30476234E+02      0.1468633762E+00
       12    11      0.36485776E+02      0.9246677103E-02
       12    12      0.36485776E+02      0.9246677103E-02
       12    13      0.39413058E+02      0.5243810447E-02
       12    14      0.39413058E+02      0.5243810447E-02
       12    15      0.39927544E+02      0.5565683150E+00
       12    16      0.46326610E+02      0.4501579205E-02
       12    17      0.46326610E+02      0.4501579205E-02
       12    18      0.57322727E+02      0.5184699913E-02
       12    19      0.79868376E+02      0.1401519899E-02
       12    20      0.79868376E+02      0.1401519899E-02
       12    21      0.87852594E+02      0.3011820322E-02
       12    22      0.92825538E+02      0.9815366315E+00
       12    23      0.96992191E+02      0.1429169982E+01
       12    24      0.12761236E+03      0.6103981241E-02
       13     1      0.19407329E+01      0.8981755880E-03
       13     2      0.19407329E+01      0.8981755880E-03
       13     3      0.28361521E+01     -0.1599411272E-03
       13     4      0.40551240E+01     -0.3166158173E-01
       13     5      0.16265140E+02      0.4847841488E-01
       13     6      0.24903392E+02      0.1081307357E-02
       13     7      0.24903392E+02      0.1081307357E-02
       13     8      0.29887598E+02      0.5383638994E-02
       13     9      0.29887598E+02      0.5383638994E-02
       13    10      0.30481250E+02      0.1330787904E+00
       13    11      0.36489683E+02      0.8125274564E-02
       13    12      0.36489683E+02      0.8125274564E-02
       13    13      0.39405183E+02      0.4577392351E-02
       13    14      0.39405183E+02      0.4577392351E-02
       13    15      0.40077241E+02      0.5696444962E+00
       13    16      0.46396182E+02      0.4288165275E-02
       13    17      0.46396182E+02      0.4288165275E-02
       13    18      0.57320508E+02      0.4888656139E-02
       13    19      0.79857078E+02      0.1301660665E-02
       13    20      0.79857078E+02      0.1301660665E-02
       13    21      0.87829132E+02      0.3236726506E-02
       13    22      0.92918332E+02      0.9769357639E+00
       13    23      0.97381846E+02      0.1593339562E+01
       13    24      0.12763597E+03      0.7007728942E-02
       14     1      0.20932341E+01      0.1066577867E-02
       14     2      0.20932341E+01      0.1066577867E-02
       14     3      0.28295501E+01      0.5754816583E-03
       14     4      0.44176236E+01     -0.1899996311E-01
       14     5      0.16415430E+02      0.5550907110E-01
       14     6      0.24962695E+02      0.1326160929E-02
       14     7      0.24962695E+02      0.1326160929E-02
       14     8      0.29764890E+02      0.5889160893E-02
       14     9      0.29764890E+02      0.5889160893E-02
       14    10      0.30486646E+02      0.1489875503E+00
       14    11      0.36493659E+02      0.9270429592E-02
       14    12      0.36493659E+02      0.9270429592E-02
       14    13      0.39397116E+02      0.5067350075E-02
       14    14      0.39397116E+02      0.5067350075E-02
       14    15      0.40235608E+02      0.5941841890E+00
       14    16      0.46470383E+02      0.4431033648E-02
       14    17      0.46470383E+02      0.4431033648E-02
       14    18      0.57318104E+02      0.5002180383E-02
       14    19      0.79844849E+02      0.1235112784E-02
       14    20      0.79844849E+02      0.1235112784E-02
       14    21      0.87803687E+02      0.3543245327E-02
       14    22      0.93022486E+02      0.9725457546E+00
       14    23      0.97795469E+02      0.1742331604E+01
       14    24      0.12766172E+03      0.8591260155E-02
       15     1      0.22436302E+01      0.1414307202E-02
       15     2      0.22436302E+01      0.1414307202E-02
       15     3      0.28224026E+01      0.9520437644E-03
       15     4      0.47838155E+01     -0.4764512418E-02
       15     5      0.16573869E+02      0.6599041512E-01
       15     6      0.25025079E+02      0.1430156180E-02
       15     7      0.25025079E+02      0.1430156180E-02
       15     8      0.29635001E+02      0.5314328161E-02
       15     9      0.29635001E+02      0.5314328161E-02
       15    10      0.30492408E+02      0.1408790731E+00
       15    11      0.36497658E+02      0.6203401477E-02
       15    12      0.36497658E+02      0.6203401477E-02
       15    13      0.39388946E+02      0.3523111551E-02
       15    14      0.39388946E+02      0.3523111551E-02
       15    15      0.40401734E+02      0.6403937741E+00
       15    16      0.46548928E+02      0.4219859855E-02
       15    17      0.46548928E+02      0.4219859855E-02
       15    18      0.57315517E+02      0.5055010567E-02
       15    19      0.79831704E+02      0.1122259267E-02
       15    20      0.79831704E+02      0.1122259267E-02
       15    21      0.87776275E+02      0.3807121695E-02
       15    22      0.93137636E+02      0.9569214554E+00
       15    23      0.98231870E+02      0.1890838771E+01
       15    24      0.12768965E+03      0.1106841611E-01
       16     1      0.23917991E+01      0.1547125315E-02
       16     2      0.23917991E+01      0.1547125315E-02
       16     3      0.28147061E+01      0.6885752175E-03
       16     4      0.51533518E+01     -0.1092714016E-01
       16     5      0.16739879E+02      0.5803719838E-01
       16     6      0.25090006E+02      0.1673493996E-02
       16     7      0.25090006E+02      0.1673493996E-02
       16     8      0.29498625E+02      0.5879597872E-02
       16     9      0.29498625E+02      0.5879597872E-02
       16    10      0.30498521E+02      0.1719150189E+00
       16    11      0.36501637E+02      0.5862187604E-02
       16    12      0.36501637E+02      0.5862187604E-02
       16    13      0.39380762E+02      0.3293626872E-02
       16    14      0.39380762E+02      0.3293626872E-02
       16    15      0.40574701E+02      0.5967997222E+00
       16    16      0.46631530E+02      0.4290369449E-02
       16    17      0.46631530E+02      0.4290369449E-02
       16    18      0.57312748E+02      0.5218239321E-02
       16    19      0.79817656E+02      0.1045640341E-02
       16    20      0.79817656E+02      0.1045640341E-02
       16    21      0.87746910E+02      0.3897459187E-02
       16    22      0.93263315E+02      0.9116012862E+00
       16    23      0.98689869E+02      0.2005674549E+01
       16    24      0.12771976E+03      0.1242238453E-01
       17     1      0.25376269E+01      0.1830625309E-02
       17     2      0.25376269E+01      0.1830625309E-02
       17     3      0.28064566E+01      0.7933550286E-03
       17     4      0.55258235E+01     -0.9712673522E-02
       17     5      0.16912916E+02      0.6150650334E-01
       17     6      0.25156819E+02      0.2067552362E-02
       17     7      0.25156819E+02      0.2067552362E-02
       17     8      0.29356574E+02      0.6187414642E-02
       17     9      0.29356574E+02      0.6187414642E-02
       17    10      0.30504971E+02      0.1981868925E+00
       17    11      0.36505553E+02      0.5224537845E-02
       17    12      0.36505553E+02      0.5224537845E-02
       17    13      0.39372647E+02      0.2871729595E-02
       17    14      0.39372647E+02      0.2871729595E-02
       17    15      0.40753581E+02      0.6741016924E+00
       17    16      0.46717901E+02      0.4293905408E-02
       17    17      0.46717901E+02      0.4293905408E-02
       17    18      0.57309799E+02      0.5247130629E-02
       17    19      0.79802720E+02      0.9933429285E-03
       17    20      0.79802720E+02      0.9933429285E-03
       17    21      0.87715610E+02      0.4430231252E-02
       17    22      0.93398983E+02      0.9025933823E+00
       17    23      0.99168284E+02      0.2223680990E+01
       17    24      0.12775208E+03      0.1270013907E-01
       18     1      0.26810074E+01      0.2326138325E-02
       18     2      0.26810074E+01      0.2326138325E-02
       18     3      0.27976499E+01      0.8826677736E-03
       18     4      0.59007710E+01      0.3632622844E-03
       18     5      0.17092475E+02      0.6932767381E-01
       18     6      0.25224699E+02      0.2289308317E-02
       18     7      0.25224699E+02      0.2289308317E-02
       18     8      0.29209811E+02      0.6036163833E-02
       18     9      0.29209811E+02      0.6036163833E-02
       18    10      0.30511740E+02      0.1906662816E+00
       18    11      0.36509369E+02      0.5809926638E-02
       18    12      0.36509369E+02      0.5809926638E-02
       18    13      0.39364683E+02      0.3121865257E-02
       18    14      0.39364683E+02      0.3121865257E-02
       18    15      0.40937456E+02      0.7718018223E+00
       18    16      0.46807757E+02      0.4234021480E-02
       18    17      0.46807757E+02      0.4234021480E-02
       18    18      0.57306674E+02      0.5403889166E-02
       18    19      0.79786911E+02      0.8885748633E-03
       18    20      0.79786911E+02      0.8885748633E-03
       18    21      0.87682394E+02      0.4760856196E-02
       18    22      0.93544041E+02      0.8365161490E+00
       18    23      0.99665918E+02      0.2305260760E+01
       18    24      0.12778662E+03      0.1282381489E-01
       19     1      0.27882818E+01      0.1338739996E-02
       19     2      0.28218430E+01      0.2467940961E-02
       19     3      0.28218430E+01      0.2467940961E-02
       19     4      0.62776930E+01     -0.1439105378E-01
       19     5      0.17278088E+02      0.6108884561E-01
       19     6      0.25292617E+02      0.2213836818E-02
       19     7      0.25292617E+02      0.2213836818E-02
       19     8      0.29059499E+02      0.6105615423E-02
       19     9      0.29059499E+02      0.6105615423E-02
       19    10      0.30518814E+02      0.1878772853E+00
       19    11      0.36513047E+02      0.5013596071E-02
       19    12      0.36513047E+02      0.5013596071E-02
       19    13      0.39356947E+02      0.2709407259E-02
       19    14      0.39356947E+02      0.2709407259E-02
       19    15      0.41125415E+02      0.7346169207E+00
       19    16      0.46900820E+02      0.4281997068E-02
       19    17      0.46900820E+02      0.4281997068E-02
       19    18      0.57303375E+02      0.5555367739E-02
       19    19      0.79770247E+02      0.8741749364E-03
       19    20      0.79770247E+02      0.8741749364E-03
       19    21      0.87647282E+02      0.5030290562E-02
       19    22      0.93697847E+02      0.7641704366E+00
       19    23      0.10018156E+03      0.2259146160E+01
       19    24      0.12782339E+03      0.1425370822E-01
       20     1      0.27783480E+01      0.1323095967E-02
       20     2      0.29600445E+01      0.2974928056E-02
       20     3      0.29600445E+01      0.2974928056E-02
       20     4      0.66560563E+01     -0.8395569718E-02
       20     5      0.17469333E+02      0.6801820573E-01
       20     6      0.25359271E+02      0.2601882043E-02
       20     7      0.25359271E+02      0.2601882043E-02
       20     8      0.28907065E+02      0.5853490397E-02
       20     9      0.28907065E+02      0.5853490397E-02
       20    10      0.30526172E+02      0.1862692684E+00
       20    11      0.36516556E+02      0.3911869071E-02
       20    12      0.36516556E+02      0.3911869071E-02
       20    13      0.39349513E+02      0.2182077571E-02
       20    14      0.39349513E+02      0.2182077571E-02
       20    15      0.41316568E+02      0.6767862743E+00
       20    16      0.46996818E+02      0.4172305767E-02
       20    17      0.46996818E+02      0.4172305767E-02
       20    18      0.57299903E+02      0.5503114893E-02
       20    19      0.79752745E+02      0.8080725306E-03
       20    20      0.79752745E+02      0.8080725306E-03
       20    21      0.87610295E+02      0.5153664756E-02
       20    22      0.93859726E+02      0.7030201587E+00
       20    23      0.10071397E+03      0.2236454842E+01
       20    24      0.12786242E+03      0.1541068148E-01
       21     1      0.27678438E+01      0.1850645783E-02
       21     2      0.30955308E+01      0.3341212282E-02
       21     3      0.30955308E+01      0.3341212282E-02
       21     4      0.70353032E+01      0.1297410669E-02
       21     5      0.17665825E+02      0.7006475579E-01
       21     6      0.25422992E+02      0.2666975362E-02
       21     7      0.25422992E+02      0.2666975362E-02
       21     8      0.28754288E+02      0.5151727017E-02
       21     9      0.28754288E+02      0.5151727017E-02
       21    10      0.30533799E+02      0.1780826598E+00
       21    11      0.36519865E+02      0.3205332881E-02
       21    12      0.36519865E+02      0.3205332881E-02
       21    13      0.39342449E+02      0.1856675165E-02
       21    14      0.39342449E+02      0.1856675165E-02
       21    15      0.41510046E+02      0.5327174258E+00
       21    16      0.47095486E+02      0.4158806942E-02
       21    17      0.47095486E+02      0.4158806942E-02
       21    18      0.57296263E+02      0.5945382026E-02
       21    19      0.79734424E+02      0.6991800015E-03
       21    20      0.79734424E+02      0.6991800015E-03
       21    21      0.87571456E+02      0.4692375602E-02
       21    22      0.94028983E+02      0.6108851522E+00
       21    23      0.10126189E+03      0.2178929545E+01
       21    24      0.12790372E+03      0.1617068842E-01
       22     1      0.27567647E+01      0.1784636764E-02
       22     2      0.32282297E+01      0.3480654905E-02
       22     3      0.32282297E+01      0.3480654905E-02
       22     4      0.74148600E+01      0.9356485186E-02
       22     5      0.17867222E+02      0.7376430954E-01
       22     6      0.25481641E+02      0.2831846806E-02
       22     7      0.25481641E+02      0.2831846806E-02
       22     8      0.28603407E+02      0.4866242010E-02
       22     9      0.28603407E+02      0.4866242010E-02
       22    10      0.30541674E+02      0.1728810319E+00
       22    11      0.36522948E+02      0.2287952943E-02