&CONTROL
    calculation   = 'scf'
    restart_mode  = 'from_scratch'
    prefix        = 'Landau_1'
    pseudo_dir    = '/cluster/scratch/mnoe/QE/pps'
    outdir        = './'
/
&SYSTEM
    ibrav       = 0
    nat         = 32
    ntyp        = 2
    ecutwfc     = 120
    occupations = 'smearing'
    degauss     = 7.35d-4
    tot_charge  = -0.2
/
&ELECTRONS
    conv_thr    = 1.0d-8
    diagonalization = 'david'
/

CELL_PARAMETERS angstrom
   7.326466589   0.000000000   0.000000000
   0.000000000   7.746053160   0.000000000
   0.000000000   0.000000000   7.326466589

ATOMIC_SPECIES
W 183.84 W_ONCV_LDA-4.0.upf
O 15.9994 O_ONCV_LDA-3.0.upf

ATOMIC_POSITIONS crystal
W 0.250869983	0.28166537433280053	-0.999090002	
W 0.7490900008589964	0.7183346256671994	-0.999129984	
W 0.24913	0.2183346407385122	-0.499090002	
W 0.7509099638589963	0.7816653765434951	-0.49912999999999996	
W 0.7491299828589963	0.28166537433280053	-0.500909982	
W 0.250909982	0.7183346256671994	-0.5008699830000001	
W 0.7508699818589963	0.2183346407385122	-1.000909965	
W 0.249090002	0.7816653765434951	-1.0008699829999999	
O 0.251850015	0.00827151006491006	-0.998159997	
O 0.7481599958589964	0.9917285014375227	-0.998149969	
O 0.248150001	0.4917285036482172	-0.498159997	
O 0.7518399698589964	0.5082714985624773	-0.498150001	
O 0.7481499678589963	0.00827151006491006	-0.501840003	
O 0.251840003	0.9917285014375227	-0.501850015	
O 0.7518499978589964	0.4917285036482172	-1.0018399709999999	
O 0.248159997	0.5082714985624773	-1.001849999	
O 0.499609947	0.252210015	-0.5500651153298046	
O 0.500249985	0.7484400230696909	-0.44993486631687535	
O 0.000389993	0.24779	-1.0500651153298046	
O 0.999750015	0.7515599790696909	-0.9499348546669517	
O 0.500389988	0.252210015	-0.9499348546669517	
O 0.499749982	0.7484400230696909	-1.0500651153298046	
O 0.999610012	0.24779	-0.44993486631687535	
O 0.000250012	0.7515599790696909	-0.5500651153298046	
O 0.6999348514578789	0.248439991	-0.25025001314100365	
O 0.300065114188801	0.7477899550696909	-0.750389988	
O 0.8000651188241283	0.251560009	-0.750249985	
O 0.19993486867019536	0.7522100470696909	-0.2503899941410036	
O 0.300065114188801	0.248439991	-1.2497500161410038	
O 0.6999348514578789	0.7477899550696909	-0.7496099469999999	
O 0.19993486867019536	0.251560009	-0.749749982	
O 0.8000651188241283	0.7522100470696909	-1.2496100131410037	

K_POINTS automatic
6 6 6 0 0 0
