&CONTROL
    calculation   = 'scf'
    restart_mode  = 'from_scratch'
    prefix        = 'Landau_1'
    pseudo_dir    = '/cluster/scratch/mnoe/QE/pps'
    outdir        = './'
/
&SYSTEM
    ibrav       = 0
    nat         = 32
    ntyp        = 2
    ecutwfc     = 120
    occupations = 'smearing'
    degauss     = 7.35d-4
    tot_charge  = -0.6
/
&ELECTRONS
    conv_thr    = 1.0d-8
    diagonalization = 'david'
/

CELL_PARAMETERS angstrom
   7.336879596   0.000000000   0.000000000
   0.000000000   7.739480120   0.000000000
   0.000000000   0.000000000   7.336911214

ATOMIC_SPECIES
W 183.84 W_ONCV_LDA-4.0.upf
O 15.9994 O_ONCV_LDA-3.0.upf

ATOMIC_POSITIONS crystal
W 0.24939244300827454	0.28108500002837045	0.0002823388972109152	
W 0.7503166379796161	0.7189149999716296	-0.0005904044019100824	
W 0.2506075569917255	0.21891501522910758	0.5002823390054505	
W 0.7496833539725875	0.7810849770101896	0.4994095946322601	
W 0.7506075523641836	0.28108500002837045	0.4997176609945495	
W 0.24968335775086511	0.7189149999716296	0.5005904053677399	
W 0.7493924395880199	0.21891501522910758	-0.0002823383227086857	
W 0.25031664224913486	0.7810849770101896	0.0005904049764123119	
O 0.24910227744300406	0.008108866206699573	-0.00014853762099125998	
O 0.7508072954564513	-0.008108848613738347	-0.00041980276221120967	
O 0.25089772188258036	0.4918911283680808	0.4998514614548095	
O 0.7491926962459687	0.5081088486137384	0.4995801969630269	
O 0.750897717155125	0.008108866206699573	0.5001485378541225	
O 0.2491926989251987	-0.008108848613738347	0.5004198023459052	
O 0.7491022745472949	0.4918911283680808	0.00014853744614275598	
O 0.2508073004003857	0.5081088486137384	0.0004198025873627057	
O 0.5001902518983291	0.24906189619216	0.45143503875313995	
O 0.4999374705171212	0.7508108701213746	0.5485649367436353	
O -0.0001902521814172816	0.2509381030584893	0.9514350717531399	
O 6.252877515859945e-05	0.7491891096095612	0.048564970037474994	
O 0.4998097481016709	0.24906189619216	0.048564970037474994	
O 0.5000625294828789	0.7508108701213746	0.9514350717531399	
O 0.00019025064941124238	0.2509381030584893	0.5485649367436353	
O -6.253030716463867e-05	0.7491891096095612	0.45143503875313995	
O 0.7014350673760134	0.2501006625254573	0.7498505427231972	
O 0.29856495712721143	0.7504823221195117	0.25023371387827903	
O 0.7985649408632839	0.24989933722475915	0.2498505481916772	
O 0.20143505475313997	0.7495176576280763	0.7502337100333923	
O 0.29856495712721143	0.2501006625254573	0.7501494497285733	
O 0.7014350673760134	0.7504823221195117	0.2497662877453142	
O 0.20143505475313997	0.24989933722475915	0.2501494534319161	
O 0.7985649408632839	0.7495176576280763	0.7497662824183783	

K_POINTS automatic
6 6 6 0 0 0
