
&CONTROL
    calculation   = 'vc-relax'
    restart_mode  = 'from_scratch'
    prefix        = 'Landau_26'
    pseudo_dir    = '/cluster/scratch/mnoe/QE/pps'
    outdir        = './'
    forc_conv_thr = 1.0d-7
    etot_conv_thr = 1.0d-7

/
&SYSTEM
    ibrav       = 0
    nat         = 32
    ntyp        = 2
    ecutwfc     = 120
    occupations = 'smearing'
    degauss     = 7.35d-4
    tot_charge  = -0.0
/
&ELECTRONS
    conv_thr    = 1.0d-8
    diagonalization = 'david'
/


&IONS
ion_dynamics = 'bfgs'
/

&CELL
cell_dynamics = 'bfgs'
cell_dofree = 'all'
/
CELL_PARAMETERS angstrom
        7.3236460686         0.0000000000         0.0000000000
        0.0000000000         7.7495899200         0.0000000000
        0.0000000000         0.0000000000         7.3236460686

ATOMIC_SPECIES
W 183.84 W_ONCV_LDA-4.0.upf
O 15.9994 O_ONCV_LDA-3.0.upf

ATOMIC_POSITIONS crystal
W       0.237979985	0.29068959364	0.01136	 0 0 0
W       0.762019982	0.70931040636	0.988639992	 0 0 0
W       0.262019998	0.20931040966	0.511359975	 0 0 0
W       0.737980018	0.79068956264	0.488640025	 0 0 0
W      0.762019982	0.29068959364	0.488640025	 0 0 0
W      0.237979985	0.70931040636	0.511359975	 0 0 0
W      0.737980018	0.20931040966	0.988639992	 0 0 0
W      0.262019998	0.79068956264	0.01136	 0 0 0
O       0.22781999	0.02502760078	0.00353	 0 0 0
O       0.772180043	0.97497244328	0.996469958	 0 0 0
O       0.272180026	0.47497238810000003	0.503530042	 0 0 0
O       0.727819957	0.52502760508	0.496469991	 0 0 0
O       0.772180043	0.02502760078	0.496469991	 0 0 0
O       0.22781999	0.97497244328	0.503530042	 0 0 0
O       0.727819957	0.47497238810000003	0.996469958	 0 0 0
O       0.272180026	0.52502760508	0.00353	 0 0 0
O    0.503290007	0.227239989	0.4951778352	 0 0 0
O    0.496709993	0.772760011	0.5048221825	 0 0 0
O    0.996710026	0.272760011	0.99517783076	 0 0 0
O    0.003289938	0.727239958	0.004822215119999994	 0 0 0
O   0.496709993	0.227239989	0.004822215119999994	 0 0 0
O   0.503290007	0.772760011	0.99517783076	 0 0 0
O   0.003289938	0.272760011	0.5048221825	 0 0 0
O   0.996710026	0.727239958	0.4951778352	 0 0 0
O   0.74517789394	0.245029999	0.745010019	 0 0 0
O   0.25482220224	0.754970016	0.254989981	 0 0 0
O   0.75482215676	0.254970016	0.245010019	 0 0 0
O   0.24517785198	0.745030015	0.754989981	 0 0 0
O   0.25482220224	0.245029999	0.754989981	 0 0 0
O   0.74517789394	0.754970016	0.245010019	 0 0 0
O   0.24517785198	0.254970016	0.254989981	 0 0 0
O   0.75482215676	0.745030015	0.745010019	 0 0 0

K_POINTS automatic
6 6 6 0 0 0
