
&CONTROL
    calculation   = 'vc-relax'
    restart_mode  = 'from_scratch'
    prefix        = 'Landau_38'
    pseudo_dir    = '/cluster/scratch/mnoe/QE/pps'
    outdir        = './'
    forc_conv_thr = 1.0d-7
    etot_conv_thr = 1.0d-7

/
&SYSTEM
    ibrav       = 0
    nat         = 32
    ntyp        = 2
    ecutwfc     = 120
    occupations = 'smearing'
    degauss     = 7.35d-4
    tot_charge  = -0.0
/
&ELECTRONS
    conv_thr    = 1.0d-8
    diagonalization = 'david'
/


&IONS
ion_dynamics = 'bfgs'
/

&CELL
cell_dynamics = 'bfgs'
cell_dofree = 'all'
/
CELL_PARAMETERS angstrom
        7.3236460686         0.0000000000         0.0000000000
        0.0000000000         7.7495899200         0.0000000000
        0.0000000000         0.0000000000         7.3236460686

ATOMIC_SPECIES
W 183.84 W_ONCV_LDA-4.0.upf
O 15.9994 O_ONCV_LDA-3.0.upf

ATOMIC_POSITIONS crystal
W 0.25	0.26673667895953096	0.0	 0 0 0
W 0.7499999196096234	0.7332633210404691	0.0	 0 0 0
W 0.25	0.23326334106486735	0.5	 0 0 0
W 0.7499999196096234	0.7667368037158857	0.5	 0 0 0
W 0.7499999196096234	0.26673667895953096	0.5	 0 0 0
W 0.25	0.7332633210404691	0.5	 0 0 0
W 0.7499999196096234	0.23326334106486735	0.0	 0 0 0
W 0.25	0.7667368037158857	0.0	 0 0 0
O 0.25	0.004199958027435856	0.0	 0 0 0
O 0.7499999196096234	0.9957999594601948	0.0	 0 0 0
O 0.25	0.4958000842165496	0.5	 0 0 0
O 0.7499999196096234	0.5042000405398052	0.5	 0 0 0
O 0.7499999196096234	0.004199958027435856	0.5	 0 0 0
O 0.25	0.9957999594601948	0.5	 0 0 0
O 0.7499999196096234	0.4958000842165496	0.0	 0 0 0
O 0.25	0.5042000405398052	0.0	 0 0 0
O 0.5	0.25	0.4865195069036148	 0 0 0
O 0.5	0.7500000603659782	0.5134806259015368	 0 0 0
O 0.0	0.25	0.9865195399036147	 0 0 0
O 0.0	0.7500000603659782	0.013480368413226071	 0 0 0
O 0.5	0.25	0.013480368413226071	 0 0 0
O 0.5	0.7500000603659782	0.9865195399036147	 0 0 0
O 0.0	0.25	0.5134806259015368	 0 0 0
O 0.0	0.7500000603659782	0.4865195069036148	 0 0 0
O 0.7365194544888398	0.25	0.7499999196096234	 0 0 0
O 0.26348041270600836	0.7500000603659782	0.25	 0 0 0
O 0.7634807062919133	0.25	0.25	 0 0 0
O 0.2365195229036148	0.7500000603659782	0.7499999196096234	 0 0 0
O 0.26348041270600836	0.25	0.7499999196096234	 0 0 0
O 0.7365194544888398	0.7500000603659782	0.25	 0 0 0
O 0.2365195229036148	0.25	0.25	 0 0 0
O 0.7634807062919133	0.7500000603659782	0.7499999196096234	 0 0 0

K_POINTS automatic
6 6 6 0 0 0
