&CONTROL
    calculation   = 'scf'
    restart_mode  = 'from_scratch'
    prefix        = 'Landau_14'
    pseudo_dir    = '/cluster/scratch/mnoe/QE/pps'
    outdir        = './'
/
&SYSTEM
    ibrav       = 0
    nat         = 32
    ntyp        = 2
    ecutwfc     = 120
    occupations = 'smearing'
    degauss     = 7.35d-4
    tot_charge  = -0.84
/
&ELECTRONS
    conv_thr    = 1.0d-8
    diagonalization = 'david'
/

CELL_PARAMETERS angstrom
   7.328002189   0.000000000   0.000000000
   0.000000000   7.712856742   0.000000000
   0.000000000   0.000000000   7.328002189

ATOMIC_SPECIES
W 183.84 W_ONCV_LDA-4.0.upf
O 15.9994 O_ONCV_LDA-3.0.upf

ATOMIC_POSITIONS crystal
W 0.262589988	0.281860003	0.25034997400000003	
W -0.2503499760000001	0.718139997	-0.7374100280000001	
W 0.23740997999999996	0.218140012	0.7503499599999999	
W 0.750349974	0.781859972	0.762589988	
W 0.7374100259999999	0.281860003	0.7496500079999999	
W 0.25034996	0.718139997	0.7374099799999999	
W -0.237410028	0.218140012	-0.7503499760000002	
W 0.24965000799999998	0.781859972	0.23741002599999994	
O 0.26384000600000007	0.00832	0.260040025	
O -0.26003999499999997	0.991680023	-0.736159945	
O 0.23615996199999995	0.491679992	0.760039978	
O 0.760040025	0.508319977	0.7638400060000001	
O 0.736159975	0.00832	0.73995999	
O 0.26003997799999995	0.991680023	0.7361599619999999	
O -0.23615994499999993	0.491679992	-0.7600399950000001	
O 0.23995999000000007	0.508319977	0.23615997499999997	
O 0.4955499600000002	0.26493000099999997	0.6995400039999999	
O 0.49909002800000013	0.7404299169999999	0.800459963	
O -0.995549927	0.23506999900000003	1.199540037	
O 0.0009100510000000061	0.7595699319999999	0.300460012	
O 0.5044500399999999	0.26493000099999997	0.300460012	
O 0.500909972	0.7404299169999999	1.199540037	
O -0.004450026000000068	0.23506999900000003	0.800459963	
O -1.000910004	0.7595699319999999	0.6995400039999999	
O 0.6995400369999999	0.240429993	2.0009100039999996	
O 0.300459996	0.7350698929999999	0.49554995999999996	
O 0.800459963	0.259570007	0.500910037	
O 0.19954001999999996	0.7649299559999999	1.9955499920000002	
O 0.300459996	0.240429993	0.9990900140000002	
O 0.699540037	0.7350698929999999	0.504450105	
O 0.19954002	0.259570007	0.4990900279999999	
O 0.800459963	0.7649299559999999	1.0044500259999998	

K_POINTS automatic
6 6 6 0 0 0
