&CONTROL
    calculation   = 'scf'
    restart_mode  = 'from_scratch'
    prefix        = 'Landau_4'
    pseudo_dir    = '/cluster/scratch/mnoe/QE/pps'
    outdir        = './'
/
&SYSTEM
    ibrav       = 0
    nat         = 16
    ntyp        = 2
    ecutwfc     = 120
    occupations = 'smearing'
    degauss     = 7.35d-4
    tot_charge  = -0.05
/
&ELECTRONS
    conv_thr    = 1.0d-8
    diagonalization = 'david'
/

CELL_PARAMETERS angstrom
   5.199033792   0.000000000   0.000000000
   0.000000000   5.199033792   0.000000000
   0.000000000   0.000000000   7.730691579

ATOMIC_SPECIES
W 183.84 W_ONCV_LDA-4.0.upf
O 15.9994 O_ONCV_LDA-3.0.upf

ATOMIC_POSITIONS crystal
W      0.2499999999999898	0.24999999999998185	0.21676200582189767	
W      0.750000022999991	0.7500000229999967	0.7832380091777157	
W      0.750000023000003	0.7500000230000078	0.28323800917810216	
W      0.24999999999998795	0.2500000000000057	0.7167619908222844	
O     0.24999999999995673	0.2499999999999863	0.4891001582829275	
O     0.7500000229999988	0.7500000230000516	0.510899841717667	
O     0.7500000229999795	0.750000023000003	0.010899854717073304	
O     0.24999999999996297	0.2500000000000086	0.9891001582823317	
O      0.45643162896463463	0.5435683250353538	0.2500000000000067	
O      0.543568371039635	0.4564316749603699	0.7499999999999998	
O      0.04356835403540804	0.9564316749645699	0.25000000000000067	
O      0.9564315829604234	0.043568388039592586	0.7500000000000326	
O      0.9564316749645957	0.4564316289645897	0.25000000000002515	
O      0.0435683880396318	0.5435683710396312	0.749999999999996	
O      0.5435683250353852	0.0435683540353933	0.24999999999998104	
O      0.4564316749604262	0.9564315829604156	0.7499999999999593	

K_POINTS automatic
6 6 6 0 0 0
