
&CONTROL
    calculation   = 'vc-relax'
    restart_mode  = 'from_scratch'
    prefix        = 'Landau_16'
    pseudo_dir    = '/cluster/scratch/mnoe/QE/pps'
    outdir        = './'
    forc_conv_thr = 1.0d-7
    etot_conv_thr = 1.0d-7

/
&SYSTEM
    ibrav       = 0
    nat         = 32
    ntyp        = 2
    ecutwfc     = 120
    occupations = 'smearing'
    degauss     = 7.35d-4
    tot_charge  = -0.0
/
&ELECTRONS
    conv_thr    = 1.0d-8
    diagonalization = 'david'
/


&IONS
ion_dynamics = 'bfgs'
/

&CELL
cell_dynamics = 'bfgs'
cell_dofree = 'all'
/
CELL_PARAMETERS angstrom
        7.3236460686         0.0000000000         0.0000000000
        0.0000000000         7.3236460686         0.0000000000
        0.0000000000         0.0000000000         7.7495899200

ATOMIC_SPECIES
W 183.84 W_ONCV_LDA-4.0.upf
O 15.9994 O_ONCV_LDA-3.0.upf

ATOMIC_POSITIONS crystal
W 0.243059993         0.242699992         0.218119991 0 0 0
W 0.756940023         0.757299992         0.218119991 0 0 0
W 0.242699992         0.756940023         0.781880024 0 0 0
W 0.757299992         0.243059993         0.781880024 0 0 0
W 0.256940007         0.742699976         0.281880024 0 0 0
W 0.743060009         0.257300024         0.281880024 0 0 0
W 0.257300024         0.256940007         0.718119976 0 0 0
W 0.742699976         0.743060009         0.718119976 0 0 0
O 0.235220000         0.235290001         0.491670026 0 0 0
O 0.764780016         0.764710015         0.491670026 0 0 0
O 0.235290001         0.764780016         0.508329974 0 0 0
O 0.764710015         0.235220000         0.508329974 0 0 0
O 0.264779984         0.735290017         0.008329987 0 0 0
O 0.735220016         0.264710015         0.008329987 0 0 0
O 0.264710015         0.264779984         0.991670026 0 0 0
O 0.735290017         0.735220016         0.991670026 0 0 0
O 0.199410008         0.497979996         0.262499975 0 0 0
O 0.800589976         0.502020004         0.262499975 0 0 0
O 0.497979996         0.800589976         0.737499994 0 0 0
O 0.502020004         0.199410008         0.737499994 0 0 0
O 0.300589976         0.997979996         0.237500009 0 0 0
O 0.699409992         0.002020001         0.237500009 0 0 0
O 0.002020001         0.300589976         0.762500006 0 0 0
O 0.997979996         0.699409992         0.762500006 0 0 0
O 0.996920017         0.199410008         0.232340000 0 0 0
O 0.003080010         0.800589976         0.232340000 0 0 0
O 0.199410008         0.003080010         0.767660000 0 0 0
O 0.800589976         0.996920017         0.767660000 0 0 0
O 0.503080016         0.699409992         0.267660030 0 0 0
O 0.496919984         0.300589976         0.267660030 0 0 0
O 0.300589976         0.503080016         0.732340000 0 0 0
O 0.699409992         0.496919984         0.732340000 0 0 0

K_POINTS automatic
6 6 6 0 0 0
