
&CONTROL
    calculation   = 'vc-relax'
    restart_mode  = 'from_scratch'
    prefix        = 'Landau_5'
    pseudo_dir    = '/cluster/scratch/mnoe/QE/pps'
    outdir        = './'
    forc_conv_thr = 1.0d-7
    etot_conv_thr = 1.0d-7

/
&SYSTEM
    ibrav       = 0
    nat         = 32
    ntyp        = 2
    ecutwfc     = 120
    occupations = 'smearing'
    degauss     = 7.35d-4
    tot_charge  = -0.0
/
&ELECTRONS
    conv_thr    = 1.0d-8
    diagonalization = 'david'
/


&IONS
ion_dynamics = 'bfgs'
/

&CELL
cell_dynamics = 'bfgs'
cell_dofree = 'all'
/
CELL_PARAMETERS angstrom
        7.3236460686         0.0000000000         0.0000000000
        0.0000000000         7.7495899200         0.0000000000
        0.0000000000         0.0000000000         7.3236460686

ATOMIC_SPECIES
W 183.84 W_ONCV_LDA-4.0.upf
O 15.9994 O_ONCV_LDA-3.0.upf

ATOMIC_POSITIONS crystal
W 0.254490002	0.2835580012	0.25012997499999995	 0 0 0
W -0.25012996399999987	0.7164419987999999	-0.745510014	 0 0 0
W 0.24551004599999998	0.21644201155	0.7501299960000001	 0 0 0
W 0.7501299749999999	0.7835579702000001	0.7544899860000001	 0 0 0
W 0.745510025	0.2835580012	0.7498700199999999	 0 0 0
W 0.250130012	0.7164419987999999	0.7455100299999999	 0 0 0
W -0.24551001399999994	0.21644201155	-0.750129964	 0 0 0
W 0.24987003599999996	0.7835579702000001	0.24551002500000002	 0 0 0
O 0.254950002	0.01153300015	0.253590038	 0 0 0
O -0.25359000900000006	0.9884670269	-0.7450499330000001	 0 0 0
O 0.24504994900000004	0.48846699125000004	0.7535899930000001	 0 0 0
O 0.753590038	0.5115329824	0.754950018	 0 0 0
O 0.745049962	0.01153300015	0.7464099900000001	 0 0 0
O 0.253589977	0.9884670269	0.745049965	 0 0 0
O -0.245049933	0.48846699125000004	-0.7535900090000002	 0 0 0
O 0.24640997400000003	0.5115329824	0.24504996199999995	 0 0 0
O 0.49840996699999995	0.25534001100000003	0.70831651	 0 0 0
O 0.499670013	0.746579955	0.79168346675	 0 0 0
O -0.998409983	0.244660021	1.2083165358	 0 0 0
O 0.0003299730000000195	0.7534199549999999	0.2916835126	 0 0 0
O 0.501590033	0.25534001100000003	0.2916835126	 0 0 0
O 0.500329987	0.746579955	1.2083165358	 0 0 0
O -0.0015900150000000197	0.244660021	0.79168346675	 0 0 0
O -1.000329971	0.7534199549999999	0.70831651	 0 0 0
O 0.7083165479499999	0.24658003100000003	2.0003299869999998	 0 0 0
O 0.29168349720000003	0.7446599599999999	0.498409983	 0 0 0
O 0.7916834617999999	0.253420001	0.500329971	 0 0 0
O 0.20831652614999996	0.75533995	1.998409967	 0 0 0
O 0.29168349720000003	0.24658003100000003	0.999670011	 0 0 0
O 0.70831654795	0.7446599599999999	0.501590017	 0 0 0
O 0.20831652615000001	0.253420001	0.499670029	 0 0 0
O 0.7916834617999999	0.75533995	1.001590031	 0 0 0

K_POINTS automatic
6 6 6 0 0 0
