
&CONTROL
    calculation   = 'vc-relax'
    restart_mode  = 'from_scratch'
    prefix        = 'Landau_5'
    pseudo_dir    = '/cluster/scratch/mnoe/QE/pps'
    outdir        = './'
    forc_conv_thr = 1.0d-7
    etot_conv_thr = 1.0d-7

/
&SYSTEM
    ibrav       = 0
    nat         = 32
    ntyp        = 2
    ecutwfc     = 120
    occupations = 'smearing'
    degauss     = 7.35d-4
    tot_charge  = -0.0
/
&ELECTRONS
    conv_thr    = 1.0d-8
    diagonalization = 'david'
/


&IONS
ion_dynamics = 'bfgs'
/

&CELL
cell_dynamics = 'bfgs'
cell_dofree = 'all'
/
CELL_PARAMETERS angstrom
        7.3236460686         0.0000000000         0.0000000000
        0.0000000000         7.7495899200         0.0000000000
        0.0000000000         0.0000000000         7.3236460686

ATOMIC_SPECIES
W 183.84 W_ONCV_LDA-4.0.upf
O 15.9994 O_ONCV_LDA-3.0.upf

ATOMIC_POSITIONS crystal
W 0.252170002	0.2791031581029196	-0.997719999	 0 0 0
W 0.7477199842391382	0.7208968418970804	-0.997830047	 0 0 0
W 0.247829998	0.22089685781963425	-0.49771999899999997	 0 0 0
W 0.7522799532391382	0.7791031867020892	-0.497829998	 0 0 0
W 0.7478300322391382	0.2791031581029196	-0.5022800009999999	 0 0 0
W 0.252280001	0.7208968418970804	-0.502170002	 0 0 0
W 0.7521699702391382	0.22089685781963425	-1.0022799679999999	 0 0 0
W 0.247719999	0.7791031867020892	-1.002169985	 0 0 0
O 0.254620008	0.007573486377680565	-0.9954	 0 0 0
O 0.7453999852391382	0.9924265072486884	-0.995380009	 0 0 0
O 0.245379992	0.492426535847858	-0.4954	 0 0 0
O 0.7545999532391382	0.5075734927513116	-0.495379992	 0 0 0
O 0.7453799942391383	0.007573486377680565	-0.504599984	 0 0 0
O 0.254599984	0.9924265072486884	-0.5046200080000001	 0 0 0
O 0.7546200092391382	0.492426535847858	-1.004599968	 0 0 0
O 0.2454	0.5075734927513116	-1.0046200239999998	 0 0 0
O 0.499040008	0.255519992	-0.5437999925129536	 0 0 0
O 0.50063001	0.7460900088383079	-0.4561999610427689	 0 0 0
O 0.000959992	0.244479993	-1.0437999925129537	 0 0 0
O 0.99936999	0.753910018838308	-0.9562000013185543	 0 0 0
O 0.500959992	0.255519992	-0.9562000013185543	 0 0 0
O 0.499370023	0.7460900088383079	-1.0437999925129537	 0 0 0
O 0.999039976	0.244479993	-0.4561999610427689	 0 0 0
O 0.000629991	0.753910018838308	-0.5437999925129536	 0 0 0
O 0.7061999598036306	0.246089995	-0.25063000576086175	 0 0 0
O 0.29379997775209193	0.744480006838308	-0.750959992	 0 0 0
O 0.7938000377180928	0.253910005	-0.75063001	 0 0 0
O 0.20619999148704624	0.7555200208383079	-0.2509600067608618	 0 0 0
O 0.29379997775209193	0.246089995	-1.2493700047608616	 0 0 0
O 0.7061999598036306	0.744480006838308	-0.7490400079999999	 0 0 0
O 0.20619999148704624	0.253910005	-0.749370023	 0 0 0
O 0.7938000377180928	0.7555200208383079	-1.2490399907608618	 0 0 0

K_POINTS automatic
6 6 6 0 0 0
