&CONTROL
    calculation   = 'scf'
    restart_mode  = 'from_scratch'
    prefix        = 'Landau_14'
    pseudo_dir    = '/cluster/scratch/mnoe/QE/pps'
    outdir        = './'
/
&SYSTEM
    ibrav       = 0
    nat         = 16
    ntyp        = 2
    ecutwfc     = 120
    occupations = 'smearing'
    degauss     = 7.35d-4
    tot_charge  = -0.1
/
&ELECTRONS
    conv_thr    = 1.0d-8
    diagonalization = 'david'
/

CELL_PARAMETERS angstrom
   5.237477696   0.000000000   0.000000000
   0.000000000   5.237477696   0.000000000
   0.000000000   0.000000000   7.687862635

ATOMIC_SPECIES
W 183.84 W_ONCV_LDA-4.0.upf
O 15.9994 O_ONCV_LDA-3.0.upf

ATOMIC_POSITIONS crystal
W       0.24999999999996433	0.24999999999993647	0.21336704287664177	
W       0.7500000229999687	0.7500000229999882	0.7866329721220048	
W       0.7500000230000105	0.7500000230000271	0.2866329721233575	
W       0.2499999999999578	0.2500000000000201	0.7133670278779953	
O      0.24999999999984854	0.249999999999952	0.48267548899024626	
O      0.7500000229999958	0.7500000230001806	0.5173245110118344	
O      0.7500000229999283	0.7500000230000106	0.01732452400975656	
O      0.24999999999987038	0.25000000000003014	0.9826754889881608	
O       0.4739857613762213	0.5260141926237383	0.2500000000000235	
O       0.5260142386387224	0.47398580736129453	0.7499999999999992	
O       0.026014221623928132	0.9739858073759946	0.2500000000000023	
O       0.9739857153614819	0.026014255638574044	0.7500000000001144	
O       0.9739858073760849	0.473985761376064	0.25000000000008793	
O       0.026014255638711282	0.526014238638709	0.7499999999999861	
O       0.5260141926238483	0.02601422162387657	0.24999999999993364	
O       0.47398580736149165	0.973985715361455	0.7499999999998572	

K_POINTS automatic
9 9 6 0 0 0
