&CONTROL
    calculation   = 'scf'
    restart_mode  = 'from_scratch'
    prefix        = 'Landau_1'
    pseudo_dir    = '/cluster/scratch/mnoe/QE/pps'
    outdir        = './'
/
&SYSTEM
    ibrav       = 0
    nat         = 32
    ntyp        = 2
    ecutwfc     = 120
    occupations = 'smearing'
    degauss     = 7.35d-4
    tot_charge  = -0.2
/
&ELECTRONS
    conv_thr    = 1.0d-8
    diagonalization = 'david'
/

CELL_PARAMETERS angstrom
   7.337229540   0.000000779   0.000000042
   0.000000824   7.739309136   0.000000919
   0.000000042   0.000000868   7.337229514

ATOMIC_SPECIES
W 183.84 W_ONCV_LDA-4.0.upf
O 15.9994 O_ONCV_LDA-3.0.upf

ATOMIC_POSITIONS crystal
W 0.25	0.28106403857681744	0.0	
W 0.7499999957689275	0.7189359614231826	0.0	
W 0.25	0.2189359766876246	0.5	
W 0.7499999957689275	0.7810640157745203	0.5	
W 0.7499999957689275	0.28106403857681744	0.5	
W 0.25	0.7189359614231826	0.5	
W 0.7499999957689275	0.2189359766876246	0.0	
W 0.25	0.7810640157745203	0.0	
O 0.25	0.008103155685654518	0.0	
O 0.7499999957689275	0.991896861761063	0.0	
O 0.25	0.4918968389587658	0.5	
O 0.7499999957689275	0.508103138238937	0.5	
O 0.7499999957689275	0.008103155685654518	0.5	
O 0.25	0.991896861761063	0.5	
O 0.7499999957689275	0.4918968389587658	0.0	
O 0.25	0.508103138238937	0.0	
O 0.5	0.25	0.45148629362650605	
O 0.5	0.7499999889666304	0.5485136821000809	
O 0.0	0.25	0.951486326626506	
O 0.0	0.7499999889666304	0.04851371496911716	
O 0.5	0.25	0.04851371496911716	
O 0.5	0.7499999889666304	0.951486326626506	
O 0.0	0.25	0.5485136821000809	
O 0.0	0.7499999889666304	0.45148629362650605	
O 0.7014863221309916	0.25	0.7499999957689275	
O 0.2985137021424215	0.7499999889666304	0.25	
O 0.7985136863311534	0.25	0.25	
O 0.20148630962650604	0.7499999889666304	0.7499999957689275	
O 0.2985137021424215	0.25	0.7499999957689275	
O 0.7014863221309916	0.7499999889666304	0.25	
O 0.20148630962650604	0.25	0.25	
O 0.7985136863311534	0.7499999889666304	0.7499999957689275	

K_POINTS automatic
6 6 6 0 0 0
