
&CONTROL
    calculation   = 'vc-relax'
    restart_mode  = 'from_scratch'
    prefix        = 'Landau_38'
    pseudo_dir    = '/cluster/scratch/mnoe/QE/pps'
    outdir        = './'
    forc_conv_thr = 1.0d-7
    etot_conv_thr = 1.0d-7

/
&SYSTEM
    ibrav       = 0
    nat         = 32
    ntyp        = 2
    ecutwfc     = 120
    occupations = 'smearing'
    degauss     = 7.35d-4
    tot_charge  = -0.0
/
&ELECTRONS
    conv_thr    = 1.0d-8
    diagonalization = 'david'
/


&IONS
ion_dynamics = 'bfgs'
/

&CELL
cell_dynamics = 'bfgs'
cell_dofree = 'all'
/
CELL_PARAMETERS angstrom
        7.3236460686         0.0000000000         0.0000000000
        0.0000000000         7.7495899200         0.0000000000
        0.0000000000         0.0000000000         7.3236460686

ATOMIC_SPECIES
W 183.84 W_ONCV_LDA-4.0.upf
O 15.9994 O_ONCV_LDA-3.0.upf

ATOMIC_POSITIONS crystal
W 0.232429994	0.288579635962936	0.0166	 0 0 0
W 0.76756999	0.711420364037064	0.983399982	 0 0 0
W 0.267570023	0.21142037013294732	0.516600018	 0 0 0
W 0.73243001	0.788579604962936	0.483399982	 0 0 0
W 0.76756999	0.288579635962936	0.483399982	 0 0 0
W 0.232429994	0.711420364037064	0.516600018	 0 0 0
W 0.73243001	0.21142037013294732	0.983399982	 0 0 0
W 0.267570023	0.788579604962936	0.0166	 0 0 0
O 0.217580004	0.021035079272674256	0.00516	 0 0 0
O 0.782419996	0.9789649597547359	0.994840012	 0 0 0
O 0.282419996	0.4789649103528946	0.505159988	 0 0 0
O 0.717580004	0.5210350770489467	0.494840012	 0 0 0
O 0.782419996	0.021035079272674256	0.494840012	 0 0 0
O 0.217580004	0.9789649597547359	0.505159988	 0 0 0
O 0.717580004	0.4789649103528946	0.994840012	 0 0 0
O 0.282419996	0.5210350770489467	0.00516	 0 0 0
O 0.504800017	0.216739997	0.48427201903806383	 0 0 0
O 0.495199983	0.783260019	0.5157279865464419	 0 0 0
O 0.995199951	0.283259988	0.9842720235448903	 0 0 0
O 0.004800081	0.716740012	0.015728023080678583	 0 0 0
O 0.495199983	0.216739997	0.015728023080678583	 0 0 0
O 0.504800017	0.783260019	0.9842720235448903	 0 0 0
O 0.004800081	0.283259988	0.5157279865464419	 0 0 0
O 0.995199951	0.716740012	0.48427201903806383	 0 0 0
O 0.7342720716271206	0.24274001	0.742710007	 0 0 0
O 0.2657280094551097	0.757259944	0.25729001	 0 0 0
O 0.7657279669573852	0.25725999	0.24270999	 0 0 0
O 0.2342720356316716	0.742740026	0.757289993	 0 0 0
O 0.2657280094551097	0.24274001	0.757289993	 0 0 0
O 0.7342720716271206	0.757259944	0.24270999	 0 0 0
O 0.2342720356316716	0.25725999	0.25729001	 0 0 0
O 0.7657279669573852	0.742740026	0.742710007	 0 0 0

K_POINTS automatic
6 6 6 0 0 0
