&CONTROL
    calculation   = 'scf'
    restart_mode  = 'from_scratch'
    prefix        = 'Landau_9'
    pseudo_dir    = '/cluster/scratch/mnoe/QE/pps'
    outdir        = './'
/
&SYSTEM
    ibrav       = 0
    nat         = 32
    ntyp        = 2
    ecutwfc     = 120
    occupations = 'smearing'
    degauss     = 7.35d-4
    tot_charge  = -0.10
/
&ELECTRONS
    conv_thr    = 1.0d-8
    diagonalization = 'david'
/

CELL_PARAMETERS angstrom
   7.325294700   0.000000000   0.000000000
   0.000000000   7.734269004   0.000000000
   0.000000000   0.000000000   7.325294700

ATOMIC_SPECIES
W 183.84 W_ONCV_LDA-4.0.upf
O 15.9994 O_ONCV_LDA-3.0.upf

ATOMIC_POSITIONS crystal
W 0.25808999	0.281860003	0.250229999	
W -0.2502300399999998	0.718139997	-0.741910042	
W 0.24191005799999998	0.218140012	0.7502300239999999	
W 0.750229999	0.781859972	0.758089974	
W 0.741910001	0.281860003	0.749769992	
W 0.25023003999999993	0.718139997	0.741910042	
W -0.24191004199999988	0.218140012	-0.7502300399999999	
W 0.24977000800000004	0.781859972	0.24191000100000004	
O 0.25889999899999994	0.00832	0.25646001399999996	
O -0.2564600119999998	0.991680023	-0.741099984	
O 0.24110000099999995	0.491679992	0.7564599949999999	
O 0.756460014	0.508319977	0.7588999989999999	
O 0.741099986	0.00832	0.743540005	
O 0.25645999499999994	0.991680023	0.741100001	
O -0.24109998399999988	0.491679992	-0.7564600119999999	
O 0.24354000499999995	0.508319977	0.24109998600000004	
O 0.49712996500000006	0.25960000399999994	0.6995400039999999	
O 0.4994099890000001	0.7438400409999999	0.800459963	
O -0.9971300630000001	0.24039997999999996	1.199540037	
O 0.000589959999999976	0.756159931	0.300460012	
O 0.502870035	0.25960000399999994	0.300460012	
O 0.500590011	0.7438400409999999	1.199540037	
O -0.0028700210000000247	0.24039997999999996	0.800459963	
O -1.000590044	0.756159931	0.6995400039999999	
O 0.6995400369999999	0.24383999399999995	2.000590044	
O 0.300459996	0.7404000119999999	0.49712996499999995	
O 0.800459963	0.25615999	0.500589946	
O 0.19954001999999996	0.75959996	1.9971299980000001	
O 0.300459996	0.24383999399999995	0.9994099750000001	
O 0.699540037	0.7404000119999999	0.50286997	
O 0.19954002	0.25615999	0.499409989	
O 0.800459963	0.75959996	1.002870021	

K_POINTS automatic
6 6 6 0 0 0
