
&CONTROL
    calculation   = 'vc-relax'
    restart_mode  = 'from_scratch'
    prefix        = 'Landau_15'
    pseudo_dir    = '/cluster/scratch/mnoe/QE/pps'
    outdir        = './'
    forc_conv_thr = 1.0d-7
    etot_conv_thr = 1.0d-7

/
&SYSTEM
    ibrav       = 0
    nat         = 32
    ntyp        = 2
    ecutwfc     = 120
    occupations = 'smearing'
    degauss     = 7.35d-4
    tot_charge  = -0.0
/
&ELECTRONS
    conv_thr    = 1.0d-8
    diagonalization = 'david'
/


&IONS
ion_dynamics = 'bfgs'
/

&CELL
cell_dynamics = 'bfgs'
cell_dofree = 'all'
/
CELL_PARAMETERS angstrom
        7.3236460686         0.0000000000         0.0000000000
        0.0000000000         7.7495899200         0.0000000000
        0.0000000000         0.0000000000         7.3236460686

ATOMIC_SPECIES
W 183.84 W_ONCV_LDA-4.0.upf
O 15.9994 O_ONCV_LDA-3.0.upf

ATOMIC_POSITIONS crystal
        0.243059999         0.281860003         0.006550000 0 0 0
        0.756940017         0.718139997         0.993450003 0 0 0
        0.256940001         0.218140012         0.506550029 0 0 0
        0.743059983         0.781859972         0.493449971 0 0 0
        0.756940017         0.281860003         0.493449971 0 0 0
        0.243059999         0.718139997         0.506550029 0 0 0
        0.743059983         0.218140012         0.993450003 0 0 0
        0.256940001         0.781859972         0.006550000 0 0 0
        0.237200010         0.008320000         0.002040000 0 0 0
        0.762799957         0.991680023         0.997959979 0 0 0
        0.262799974         0.491679992         0.502040021 0 0 0
        0.737200043         0.508319977         0.497960012 0 0 0
        0.762799957         0.008320000         0.497960012 0 0 0
        0.237200010         0.991680023         0.502040021 0 0 0
        0.737200043         0.491679992         0.997959979 0 0 0
        0.262799974         0.508319977         0.002040000 0 0 0
        0.501900030         0.236870006         0.449540004 0 0 0
        0.498099970         0.763130009         0.550459963 0 0 0
        0.998099970         0.263130009         0.949540037 0 0 0
        0.001899958         0.736870022         0.050460012 0 0 0
        0.498099970         0.236870006         0.050460012 0 0 0
        0.501900030         0.763130009         0.949540037 0 0 0
        0.001899958         0.263130009         0.550459963 0 0 0
        0.998099970         0.736870022         0.449540004 0 0 0
        0.699540037         0.247130007         0.747120036 0 0 0
        0.300459996         0.752869978         0.252879981 0 0 0
        0.800459963         0.252869993         0.247120019 0 0 0
        0.199540020         0.747130053         0.752879964 0 0 0
        0.300459996         0.247130007         0.752879964 0 0 0
        0.699540037         0.752869978         0.247120019 0 0 0
        0.199540020         0.252869993         0.252879981 0 0 0
        0.800459963         0.747130053         0.747120036 0 0 0

K_POINTS automatic
6 6 6 0 0 0
