
&CONTROL
    calculation   = 'vc-relax'
    restart_mode  = 'from_scratch'
    prefix        = 'Landau_28'
    pseudo_dir    = '/cluster/scratch/mnoe/QE/pps'
    outdir        = './'
    forc_conv_thr = 1.0d-7
    etot_conv_thr = 1.0d-7

/
&SYSTEM
    ibrav       = 0
    nat         = 32
    ntyp        = 2
    ecutwfc     = 120
    occupations = 'smearing'
    degauss     = 7.35d-4
    tot_charge  = -0.0
/
&ELECTRONS
    conv_thr    = 1.0d-8
    diagonalization = 'david'
/


&IONS
ion_dynamics = 'bfgs'
/

&CELL
cell_dynamics = 'bfgs'
cell_dofree = 'all'
/
CELL_PARAMETERS angstrom
        7.3236460686         0.0000000000         0.0000000000
        0.0000000000         7.7495899200         0.0000000000
        0.0000000000         0.0000000000         7.3236460686

ATOMIC_SPECIES
W 183.84 W_ONCV_LDA-4.0.upf
O 15.9994 O_ONCV_LDA-3.0.upf

ATOMIC_POSITIONS crystal
W 0.262139998	0.2788749286592077	-0.987229992	 0 0 0
W 0.7372299760259492	0.7211250713407923	-0.987859937	 0 0 0
W 0.237860002	0.22112508733917044	-0.487230008	 0 0 0
W 0.7627699600259492	0.778874959608931	-0.487860002	 0 0 0
W 0.7378599210259492	0.2788749286592077	-0.512769992	 0 0 0
W 0.262769992	0.7211250713407923	-0.512139998	 0 0 0
W 0.7621400150259493	0.22112508733917044	-1.012769976	 0 0 0
W 0.237230008	0.778874959608931	-1.012140031	 0 0 0
O 0.275869982	0.0075113099087408194	-0.974259992	 0 0 0
O 0.7242599760259493	0.9924886821253175	-0.974130018	 0 0 0
O 0.224130002	0.4924887130750409	-0.474260009	 0 0 0
O 0.7757400240259492	0.5075113178746825	-0.474130002	 0 0 0
O 0.7241300020259492	0.0075113099087408194	-0.525740008	 0 0 0
O 0.275740008	0.9924886821253175	-0.525869982	 0 0 0
O 0.7758699330259492	0.4924887130750409	-1.02574004	 0 0 0
O 0.224260009	0.5075113178746825	-1.025869949	 0 0 0
O 0.494610078	0.2809	-0.543241926617265	 0 0 0
O 0.503530042	0.7281299879756726	-0.4567580244362552	 0 0 0
O 0.005389988	0.2191	-1.043241926617265	 0 0 0
O 0.996469991	0.7718700419756725	-0.9567580693373238	 0 0 0
O 0.505389987	0.2809	-0.9567580693373238	 0 0 0
O 0.496469991	0.7281299879756726	-1.043241926617265	 0 0 0
O 0.99460998	0.2191	-0.4567580244362552	 0 0 0
O 0.003529996	0.7718700419756725	-0.543241926617265	 0 0 0
O 0.706758024410306	0.228130019	-0.25353001197405073	 0 0 0
O 0.29324191064321425	0.7190999839756725	-0.755389987	 0 0 0
O 0.7932419755377956	0.271869996	-0.753530042	 0 0 0
O 0.2067580573827349	0.7809000459756726	-0.25539000397405076	 0 0 0
O 0.29324191064321425	0.228130019	-1.2464700069740509	 0 0 0
O 0.706758024410306	0.7190999839756725	-0.744610078	 0 0 0
O 0.2067580573827349	0.271869996	-0.746469991	 0 0 0
O 0.7932419755377956	0.7809000459756726	-1.2446099959740506	 0 0 0

K_POINTS automatic
6 6 6 0 0 0
