&CONTROL
    calculation   = 'scf'
    restart_mode  = 'from_scratch'
    prefix        = 'Landau_8'
    pseudo_dir    = '/cluster/scratch/mnoe/QE/pps'
    outdir        = './'
/
&SYSTEM
    ibrav       = 0
    nat         = 32
    ntyp        = 2
    ecutwfc     = 120
    occupations = 'smearing'
    degauss     = 7.35d-4
    tot_charge  = -0.68
/
&ELECTRONS
    conv_thr    = 1.0d-8
    diagonalization = 'david'
/

CELL_PARAMETERS angstrom
   7.324934688   0.000000000   0.000000000
   0.000000000   7.737447061   0.000000000
   0.000000000   0.000000000   7.324934688

ATOMIC_SPECIES
W 183.84 W_ONCV_LDA-4.0.upf
O 15.9994 O_ONCV_LDA-3.0.upf

ATOMIC_POSITIONS crystal
W 0.2571899980000001	0.281860003	0.250210049	
W -0.25021005099999993	0.718139997	-0.7428099530000001	
W 0.24281001900000004	0.218140012	0.750210051	
W 0.750210049	0.781859972	0.7571900140000001	
W 0.742809951	0.281860003	0.749789998	
W 0.25021003500000005	0.718139997	0.742810035	
W -0.24280995299999997	0.218140012	-0.750210051	
W 0.24978998200000008	0.781859972	0.24280995100000002	
O 0.25791000499999994	0.00832	0.25572995000000004	
O -0.255729977	0.991680023	-0.7420900770000001	
O 0.242089995	0.491679992	0.7557299930000001	
O 0.75572995	0.508319977	0.757910005	
O 0.7420900500000001	0.00832	0.744270007	
O 0.255729993	0.991680023	0.7420899950000001	
O -0.24209007699999996	0.491679992	-0.7557299770000001	
O 0.24427000699999996	0.508319977	0.24209005	
O 0.4974599850000001	0.258530003	0.6995400039999999	
O 0.499480017	0.7445300039999999	0.800459963	
O -0.99746005	0.24147001299999998	1.199540037	
O 0.0005199930000000105	0.755469968	0.300460012	
O 0.5025400149999999	0.258530003	0.300460012	
O 0.500519983	0.7445300039999999	1.199540037	
O -0.002539939999999949	0.24147001299999998	0.800459963	
O -1.000519983	0.755469968	0.6995400039999999	
O 0.6995400369999999	0.244530003	2.0005199830000002	
O 0.300459996	0.741469999	0.49745998500000005	
O 0.800459963	0.255470013	0.500519918	
O 0.19954001999999996	0.7585299729999999	1.997459985	
O 0.300459996	0.244530003	0.999479942	
O 0.699540037	0.741469999	0.50253995	
O 0.19954002	0.255470013	0.499480017	
O 0.800459963	0.7585299729999999	1.00253994	

K_POINTS automatic
6 6 6 0 0 0
