
&CONTROL
    calculation   = 'vc-relax'
    restart_mode  = 'from_scratch'
    prefix        = 'Landau_1'
    pseudo_dir    = '/cluster/scratch/mnoe/QE/pps'
    outdir        = './'
    forc_conv_thr = 1.0d-7
    etot_conv_thr = 1.0d-7

/
&SYSTEM
    ibrav       = 0
    nat         = 32
    ntyp        = 2
    ecutwfc     = 120
    occupations = 'smearing'
    degauss     = 7.35d-4
    tot_charge  = -0.0
/
&ELECTRONS
    conv_thr    = 1.0d-8
    diagonalization = 'david'
/


&IONS
ion_dynamics = 'bfgs'
/

&CELL
cell_dynamics = 'bfgs'
cell_dofree = 'all'
/
CELL_PARAMETERS angstrom
        7.3236460686         0.0000000000         0.0000000000
        0.0000000000         7.7495899200         0.0000000000
        0.0000000000         0.0000000000         7.3236460686

ATOMIC_SPECIES
W 183.84 W_ONCV_LDA-4.0.upf
O 15.9994 O_ONCV_LDA-3.0.upf

ATOMIC_POSITIONS crystal
W 0.2486387441482986	0.28137042685056973	0.0004115240478024904	 0 0 0
W 0.7504887415199466	0.7186295731494303	-0.0013354749021975121	 0 0 0
W 0.2513612558517014	0.2186295883120814	0.5004115241232836	 0 0 0
W 0.7495112538495664	0.7813704008927547	0.4986645230232836	 0 0 0
W 0.7513612521495664	0.28137042685056973	0.4995884758767164	 0 0 0
W 0.24951125585170142	0.7186295731494303	0.5013354769767164	 0 0 0
W 0.7486387432199466	0.2186295883120814	-0.00041152289780249326	 0 0 0
W 0.2504887441482986	0.7813704008927547	0.0013354760521975093	 0 0 0
O 0.24815790285103217	0.008186624937809863	-0.0005807831790637281	 0 0 0
O 0.7515708990986142	-0.008186605353483497	-0.001123783529063726	 0 0 0
O 0.2518420955249018	0.4918133686887014	0.49941921469687023	 0 0 0
O 0.748429095521748	0.5081866053534835	0.49887621564687024	 0 0 0
O 0.7518420919217479	0.008186624937809863	0.5005807840526769	 0 0 0
O 0.2484290950249018	-0.008186605353483497	0.5011237831026769	 0 0 0
O 0.7481579026986142	0.4918133686887014	0.0005807828290637302	 0 0 0
O 0.25157090335103216	0.5081866053534835	0.001123783179063728	 0 0 0
O 0.500444532979743	0.2480587163215589	0.4507371140130469	 0 0 0
O 0.49993853217974293	0.7515597047859013	0.5492628583544403	 0 0 0
O -0.0004445330065825404	0.2519412821784411	0.9507371470130469	 0 0 0
O 6.146694341746027e-05	0.7484402746169061	0.04926289743272158	 0 0 0
O 0.49955546702025705	0.2480587163215589	0.04926289743272158	 0 0 0
O 0.5000614678202571	0.7515597047859013	0.9507371470130469	 0 0 0
O 0.0004445304797429584	0.2519412821784411	0.5492628583544403	 0 0 0
O -6.14694702570423e-05	0.7484402746169061	0.4507371140130469	 0 0 0
O 0.7007371442479777	0.2504922584988147	0.7497428559170533	 0 0 0
O 0.2992628833845351	0.751256249162308	0.25050985629540523	 0 0 0
O 0.7992628609568583	0.24950774075203436	0.2497428609454052	 0 0 0
O 0.20073713001304688	0.7487437302655277	0.7505098545170532	 0 0 0
O 0.2992628833845351	0.2504922584988147	0.7502571409507617	 0 0 0
O 0.7007371442479777	0.751256249162308	0.2494901469545948	 0 0 0
O 0.20073713001304688	0.24950774075203436	0.2502571423045948	 0 0 0
O 0.7992628609568583	0.7487437302655277	0.7494901423507617	 0 0 0

K_POINTS automatic
6 6 6 0 0 0
