
&CONTROL
    calculation   = 'vc-relax'
    restart_mode  = 'from_scratch'
    prefix        = 'Landau_2'
    pseudo_dir    = '/cluster/scratch/mnoe/QE/pps'
    outdir        = './'
    forc_conv_thr = 1.0d-7
    etot_conv_thr = 1.0d-7

/
&SYSTEM
    ibrav       = 0
    nat         = 16
    ntyp        = 2
    ecutwfc     = 120
    occupations = 'smearing'
    degauss     = 7.35d-4
    tot_charge  = -0.0
/
&ELECTRONS
    conv_thr    = 1.0d-8
    diagonalization = 'david'
/


&IONS
ion_dynamics = 'bfgs'
/

&CELL
cell_dynamics = 'bfgs'
cell_dofree = 'all'
/
CELL_PARAMETERS angstrom
        5.177959919             0.0             0.0
        0.0             5.177959919             0.0
        0.0             0.0            7.7496299744

ATOMIC_SPECIES
W 183.84 W_ONCV_LDA-4.0.upf
O 15.9994 O_ONCV_LDA-3.0.upf

ATOMIC_POSITIONS crystal
W       0.2499999999999949	0.24999999999999092	0.21744099841094883	 0 0 0
W       0.7500000229999956	0.7500000229999984	0.7825590165888578	 0 0 0
W       0.7500000230000015	0.7500000230000039	0.2825590165890511	 0 0 0
W       0.24999999999999398	0.2500000000000029	0.7174409834111422	 0 0 0
O      0.24999999999997835	0.24999999999999314	0.49038509214146375	 0 0 0
O      0.7500000229999995	0.7500000230000258	0.5096149078588335	 0 0 0
O      0.7500000229999898	0.7500000230000016	0.009614920858536652	 0 0 0
O      0.2499999999999815	0.25000000000000433	0.9903850921411658	 0 0 0
O       0.4529208024823173	0.5470791515176768	0.25000000000000333	 0 0 0
O       0.5470791975198175	0.45292084848018493	0.7499999999999999	 0 0 0
O       0.04707918051770402	0.952920848482285	0.25000000000000033	 0 0 0
O       0.9529207564802117	0.0470792145197963	0.7500000000000163	 0 0 0
O       0.9529208484822979	0.4529208024822948	0.25000000000001255	 0 0 0
O       0.0470792145198159	0.5470791975198156	0.749999999999998	 0 0 0
O       0.5470791515176926	0.047079180517696655	0.2499999999999905	 0 0 0
O       0.45292084848021313	0.9529207564802078	0.7499999999999796	 0 0 0

K_POINTS automatic
9 9 6 0 0 0
