&CONTROL
    calculation   = 'scf'
    restart_mode  = 'from_scratch'
    prefix        = 'Landau_10'
    pseudo_dir    = '/cluster/scratch/mnoe/QE/pps'
    outdir        = './'
/
&SYSTEM
    ibrav       = 0
    nat         = 32
    ntyp        = 2
    ecutwfc     = 120
    occupations = 'smearing'
    degauss     = 7.35d-4
    tot_charge  = -0.68
/
&ELECTRONS
    conv_thr    = 1.0d-8
    diagonalization = 'david'
/

CELL_PARAMETERS angstrom
   7.322763389   0.000000000   0.000000000
   0.000000000   7.740044722   0.000000000
   0.000000000   0.000000000   7.326448302

ATOMIC_SPECIES
W 183.84 W_ONCV_LDA-4.0.upf
O 15.9994 O_ONCV_LDA-3.0.upf

ATOMIC_POSITIONS crystal
W         0.245380002         0.281860003         0.004370000
W         0.754620015         0.718139997         0.995630015
W         0.254620015         0.218140012         0.504369985
W         0.745379985         0.781859972         0.495629982
W         0.754620015         0.281860003         0.495629982
W         0.245380002         0.718139997         0.504369985
W         0.745379985         0.218140012         0.995630015
W         0.254620015         0.781859972         0.004370000
O         0.241469999         0.008320000         0.001360000
O         0.758530049         0.991680023         0.998640008
O         0.258530017         0.491679992         0.501359992
O         0.741469951         0.508319977         0.498640008
O         0.758530049         0.008320000         0.498640008
O         0.241469999         0.991680023         0.501359992
O         0.741469951         0.491679992         0.998640008
O         0.258530017         0.508319977         0.001360000
O         0.501259980         0.241249988         0.449540004
O         0.498740020         0.758750012         0.550459963
O         0.998740020         0.258750012         0.949540037
O         0.001260042         0.741249958         0.050460012
O         0.498740020         0.241249988         0.050460012
O         0.501259980         0.758750012         0.949540037
O         0.001260042         0.258750012         0.550459963
O         0.998740020         0.741249958         0.449540004
O         0.699540037         0.248090004         0.748080045
O         0.300459996         0.751909950         0.251919987
O         0.800459963         0.251909996         0.248080013
O         0.199540020         0.748090020         0.751919955
O         0.300459996         0.248090004         0.751919955
O         0.699540037         0.751909950         0.248080013
O         0.199540020         0.251909996         0.251919987
O         0.800459963         0.748090020         0.748080045

K_POINTS automatic
6 6 6 0 0 0
