&CONTROL
    calculation   = 'scf'
    restart_mode  = 'from_scratch'
    prefix        = 'Landau_8'
    pseudo_dir    = '/cluster/scratch/mnoe/QE/pps'
    outdir        = './'
/
&SYSTEM
    ibrav       = 0
    nat         = 32
    ntyp        = 2
    ecutwfc     = 120
    occupations = 'smearing'
    degauss     = 7.35d-4
    tot_charge  = -0.84
/
&ELECTRONS
    conv_thr    = 1.0d-8
    diagonalization = 'david'
/

CELL_PARAMETERS angstrom
   7.378682779   0.000000000   0.000000000
   0.000000000   7.706877685   0.000000000
   0.000000000   0.000000000   7.380064834

ATOMIC_SPECIES
W 183.84 W_ONCV_LDA-4.0.upf
O 15.9994 O_ONCV_LDA-3.0.upf

ATOMIC_POSITIONS crystal
W        0.2463	0.28457680012000003	0.00349	
W        0.753700049	0.71542319988	0.996510002	
W        0.253700016	0.21542321128	0.503489965	
W        0.746299951	0.78457676912	0.496510002	
W       0.753700049	0.28457680012000003	0.496510002	
W       0.2463	0.71542319988	0.503489965	
W       0.746299951	0.21542321128	0.996510002	
W       0.253700016	0.78457676912	0.00349	
O        0.243180001	0.01346080024	0.00109	
O        0.75681995	0.98653922924	0.998910027	
O        0.256819999	0.4865391908	0.501090006	
O        0.74318005	0.51346078564	0.498909994	
O        0.75681995	0.01346080024	0.498909994	
O        0.243180001	0.98653922924	0.501090006	
O        0.74318005	0.4865391908	0.998910027	
O        0.256819999	0.51346078564	0.00109	
O    0.501010016	0.243	0.4635824136	
O    0.498989984	0.756999969	0.536417569	
O    0.998989984	0.257	0.96358243508	
O    0.001009941	0.743	0.03641761296	
O   0.498989984	0.243	0.03641761296	
O   0.501010016	0.756999969	0.96358243508	
O   0.001009941	0.257	0.536417569	
O   0.998989984	0.743	0.4635824136	
O   0.71358245452	0.248469997	0.748470001	
O   0.28641759792	0.751529987	0.251529999	
O   0.7864175610799999	0.251529987	0.248470066	
O   0.21358242984	0.748469982	0.751529999	
O   0.28641759792	0.248469997	0.751529999	
O   0.71358245452	0.751529987	0.248470066	
O   0.21358242984	0.251529987	0.251529999	
O   0.7864175610799999	0.748469982	0.748470001	

K_POINTS automatic
6 6 6 0 0 0
