&CONTROL
    calculation   = 'scf'
    restart_mode  = 'from_scratch'
    prefix        = 'Landau_10'
    pseudo_dir    = '/cluster/scratch/mnoe/QE/pps'
    outdir        = './'
/
&SYSTEM
    ibrav       = 0
    nat         = 32
    ntyp        = 2
    ecutwfc     = 120
    occupations = 'smearing'
    degauss     = 7.35d-4
    tot_charge  = -1.0
/
&ELECTRONS
    conv_thr    = 1.0d-8
    diagonalization = 'david'
/

CELL_PARAMETERS angstrom
   7.360172875   0.000000000   0.000000000
   0.000000000   7.667689194   0.000000000
   0.000000000   0.000000000   7.366383149

ATOMIC_SPECIES
W 183.84 W_ONCV_LDA-4.0.upf
O 15.9994 O_ONCV_LDA-3.0.upf

ATOMIC_POSITIONS crystal
W 0.23420616222447893	0.27988016490586676	0.0018053604670373573	
W 0.752706155561333	0.7201198350941332	-0.015664629032962667	
W 0.26579383777552107	0.22011985075189178	0.5018053590992542	
W 0.7472938320056295	0.7798801542963817	0.48433534809925416	
W 0.7657938150056295	0.27988016490586676	0.49819464090074583	
W 0.24729383777552108	0.7201198350941332	0.5156646519007458	
W 0.734206172561333	0.22011985075189178	-0.0018053489670373842	
W 0.25270616222447895	0.7798801542963817	0.01566464053296264	
O 0.23090104601548245	0.007780633388209968	-0.010069247685955922	
O 0.7650310239913457	-0.00778062420113941	-0.015499251185955902	
O 0.26909893362352666	0.4922193651893755	0.4899307269530532	
O 0.7349689523383525	0.5077806242011395	0.4845007364530532	
O 0.7690989163383525	0.007780633388209968	0.5100692625401545	
O 0.23496892862352667	-0.00778062420113941	0.5154992530401545	
O 0.7309010599913457	0.4922193651893755	0.010069244185955943	
O 0.26503105101548247	0.5077806242011395	0.015499247685955923	
O 0.5054029926961443	0.2296332445733835	0.4543810976877881	
O 0.5003429846961444	0.7646432515583939	0.5456188910182439	
O -0.005402984848738103	0.27036674042661646	0.9543811306877881	
O -0.00034298534873809534	0.7353567910234668	0.0456188998949726	
O 0.49459700730385564	0.2296332445733835	0.0456188998949726	
O 0.4996570153038556	0.7646432515583939	0.9543811306877881	
O 0.005402967696144376	0.27036674042661646	0.5456188910182439	
O 0.0003429681961443689	0.7353567910234668	0.4543810976877881	
O 0.7043811195058929	0.2592938769822201	0.7480603637679323	
O 0.29561889178807516	0.766933909704495	0.25573034793107813	
O 0.7956189015423806	0.2407061117805154	0.2480603944310781	
O 0.2043811136877881	0.7330661330027902	0.7557303497679323	
O 0.29561889178807516	0.2592938769822201	0.7519396462735592	
O 0.7043811195058929	0.766933909704495	0.2442696845689219	
O 0.2043811136877881	0.2407061117805154	0.2519396380689219	
O 0.7956189015423806	0.7330661330027902	0.7442696602735592	

K_POINTS automatic
6 6 6 0 0 0
