
&CONTROL
    calculation   = 'vc-relax'
    restart_mode  = 'from_scratch'
    prefix        = 'Landau_6'
    pseudo_dir    = '/cluster/scratch/mnoe/QE/pps'
    outdir        = './'
    forc_conv_thr = 1.0d-7
    etot_conv_thr = 1.0d-7

/
&SYSTEM
    ibrav       = 0
    nat         = 32
    ntyp        = 2
    ecutwfc     = 120
    occupations = 'smearing'
    degauss     = 7.35d-4
    tot_charge  = -0.0
/
&ELECTRONS
    conv_thr    = 1.0d-8
    diagonalization = 'david'
/


&IONS
ion_dynamics = 'bfgs'
/

&CELL
cell_dynamics = 'bfgs'
cell_dofree = 'all'
/
CELL_PARAMETERS angstrom
        7.3236460686         0.0000000000         0.0000000000
        0.0000000000         7.7495899200         0.0000000000
        0.0000000000         0.0000000000         7.3236460686

ATOMIC_SPECIES
W 183.84 W_ONCV_LDA-4.0.upf
O 15.9994 O_ONCV_LDA-3.0.upf

ATOMIC_POSITIONS crystal
W 0.2392089967	0.281261044542959	-0.00030899459999999927	 0 0 0
W 0.7503089983161433	0.7187389554570409	-0.010790988300000014	 0 0 0
W 0.2607910033	0.218738970656032	0.4996910033	 0 0 0
W 0.7496910022161434	0.7812610197116813	0.4892089967	 0 0 0
W 0.7607909920161433	0.281261044542959	0.5003089967	 0 0 0
W 0.2496910033	0.7187389554570409	0.5107910033	 0 0 0
W 0.7392090085161434	0.218738970656032	0.00030900149999998384	 0 0 0
W 0.2503089967	0.7812610197116813	0.010790995199999999	 0 0 0
O 0.238131994	0.008156825953326955	-0.008609989200000001	 0 0 0
O 0.7586099839161433	-0.008156807132138798	-0.011867991299999988	 0 0 0
O 0.2618679913	0.49184316803658346	0.4913899931	 0 0 0
O 0.7413900076161434	0.5081568071321388	0.48813199879999997	 0 0 0
O 0.7618679860161434	0.008156825953326955	0.5086100018	 0 0 0
O 0.2413899883	-0.008156807132138798	0.5118679961	 0 0 0
O 0.7381320055161433	0.49184316803658346	0.008609987100000015	 0 0 0
O 0.258609997	0.5081568071321388	0.011867989200000002	 0 0 0
O 0.5038189982	0.2372050009	0.4510045752769244	 0 0 0
O 0.5007829934	0.7582109972848656	0.54899539828978	 0 0 0
O -0.0038189886000000025	0.26279499009999996	0.9510046082769245	 0 0 0
O -0.0007829888999999989	0.7417890149848656	0.048995435151326434	 0 0 0
O 0.4961810018	0.2372050009	0.048995435151326434	 0 0 0
O 0.49921700659999996	0.7582109972848656	0.9510046082769245	 0 0 0
O 0.003818983200000005	0.26279499009999996	0.54899539828978	 0 0 0
O 0.0007829835000000009	0.7417890149848656	0.4510045752769244	 0 0 0
O 0.7010046048940767	0.25821099129999997	0.7492170133161433	 0 0 0
O 0.29899542153921893	0.7627950053848657	0.2538189982	 0 0 0
O 0.7989954014736366	0.24178899969999998	0.24921702610000002	 0 0 0
O 0.20100459127692444	0.7372050068848656	0.7538190049161434	 0 0 0
O 0.29899542153921893	0.25821099129999997	0.7507830052161434	 0 0 0
O 0.7010046048940767	0.7627950053848657	0.24618102130000002	 0 0 0
O 0.20100459127692444	0.24178899969999998	0.25078299340000004	 0 0 0
O 0.7989954014736366	0.7372050068848656	0.7461810136161433	 0 0 0

K_POINTS automatic
6 6 6 0 0 0
