&CONTROL
    calculation   = 'scf'
    restart_mode  = 'from_scratch'
    prefix        = 'Landau_20'
    pseudo_dir    = '/cluster/scratch/mnoe/QE/pps'
    outdir        = './'
/
&SYSTEM
    ibrav       = 0
    nat         = 32
    ntyp        = 2
    ecutwfc     = 120
    occupations = 'smearing'
    degauss     = 7.35d-4
    tot_charge  = -0.84
/
&ELECTRONS
    conv_thr    = 1.0d-8
    diagonalization = 'david'
/

CELL_PARAMETERS angstrom
   7.320534582   0.000000000   0.000000000
   0.000000000   7.712135316   0.000000000
   0.000000000   0.000000000   7.335477663

ATOMIC_SPECIES
W 183.84 W_ONCV_LDA-4.0.upf
O 15.9994 O_ONCV_LDA-3.0.upf

ATOMIC_POSITIONS crystal
W         0.240749992         0.281860003         0.008740001
W         0.759249992         0.718139997         0.991259965
W         0.259249992         0.218140012         0.508740003
W         0.740750008         0.781859972         0.491259997
W         0.759249992         0.281860003         0.491259997
W         0.240749992         0.718139997         0.508740003
W         0.740750008         0.218140012         0.991259965
W         0.259249992         0.781859972         0.008740001
O         0.232939999         0.008320000         0.002720000
O         0.767059969         0.991680023         0.997280016
O         0.267059985         0.491679992         0.502719984
O         0.732940031         0.508319977         0.497280016
O         0.767059969         0.008320000         0.497280016
O         0.232939999         0.991680023         0.502719984
O         0.732940031         0.491679992         0.997280016
O         0.267059985         0.508319977         0.002720000
O         0.502529988         0.232500008         0.449540004
O         0.497470012         0.767499977         0.550459963
O         0.997470012         0.267499977         0.949540037
O         0.002529979         0.732499992         0.050460012
O         0.497470012         0.232500008         0.050460012
O         0.502529988         0.767499977         0.949540037
O         0.002529979         0.267499977         0.550459963
O         0.997470012         0.732499992         0.449540004
O         0.699540037         0.246179993         0.746159961
O         0.300459996         0.753819976         0.253840023
O         0.800459963         0.253820007         0.246160026
O         0.199540020         0.746179993         0.753840039
O         0.300459996         0.246179993         0.753840039
O         0.699540037         0.753819976         0.246160026
O         0.199540020         0.253820007         0.253840023
O         0.800459963         0.746179993         0.746159961

K_POINTS automatic
6 6 6 0 0 0
