
&CONTROL
    calculation   = 'vc-relax'
    restart_mode  = 'from_scratch'
    prefix        = 'Landau_31'
    pseudo_dir    = '/cluster/scratch/mnoe/QE/pps'
    outdir        = './'
    forc_conv_thr = 1.0d-7
    etot_conv_thr = 1.0d-7

/
&SYSTEM
    ibrav       = 0
    nat         = 32
    ntyp        = 2
    ecutwfc     = 120
    occupations = 'smearing'
    degauss     = 7.35d-4
    tot_charge  = -0.0
/
&ELECTRONS
    conv_thr    = 1.0d-8
    diagonalization = 'david'
/


&IONS
ion_dynamics = 'bfgs'
/

&CELL
cell_dynamics = 'bfgs'
cell_dofree = 'all'
/
CELL_PARAMETERS angstrom
        7.3236460686         0.0000000000         0.0000000000
        0.0000000000         7.3236460686         0.0000000000
        0.0000000000         0.0000000000         7.7495899200

ATOMIC_SPECIES
W 183.84 W_ONCV_LDA-4.0.upf
O 15.9994 O_ONCV_LDA-3.0.upf

ATOMIC_POSITIONS crystal
W 0.236560000         0.235860005         0.218119991 0 0 0
W 0.763440033         0.764139979         0.218119991 0 0 0
W 0.235860005         0.763440033         0.781880024 0 0 0
W 0.764139979         0.236560000         0.781880024 0 0 0
W 0.263440016         0.735859989         0.281880024 0 0 0
W 0.736560000         0.264140011         0.281880024 0 0 0
W 0.264140011         0.263440016         0.718119976 0 0 0
W 0.735859989         0.736560000         0.718119976 0 0 0
O 0.221359993         0.221499995         0.491670026 0 0 0
O 0.778640039         0.778500037         0.491670026 0 0 0
O 0.221499995         0.778640039         0.508329974 0 0 0
O 0.778500037         0.221359993         0.508329974 0 0 0
O 0.278640007         0.721499995         0.008329987 0 0 0
O 0.721359993         0.278500005         0.008329987 0 0 0
O 0.278500005         0.278640007         0.991670026 0 0 0
O 0.721499995         0.721359993         0.991670026 0 0 0
O 0.199410008         0.496089999         0.274219993 0 0 0
O 0.800589976         0.503910001         0.274219993 0 0 0
O 0.496089999         0.800589976         0.725780007 0 0 0
O 0.503910001         0.199410008         0.725780007 0 0 0
O 0.300589976         0.996089966         0.225780007 0 0 0
O 0.699409992         0.003910005         0.225780007 0 0 0
O 0.003910005         0.300589976         0.774219993 0 0 0
O 0.996089966         0.699409992         0.774219993 0 0 0
O 0.994029980         0.199410008         0.215790007 0 0 0
O 0.005970001         0.800589976         0.215790007 0 0 0
O 0.199410008         0.005970001         0.784209993 0 0 0
O 0.800589976         0.994029980         0.784209993 0 0 0
O 0.505969987         0.699409992         0.284209993 0 0 0
O 0.494030013         0.300589976         0.284209993 0 0 0
O 0.300589976         0.505969987         0.715790007 0 0 0
O 0.699409992         0.494030013         0.715790007 0 0 0

K_POINTS automatic
6 6 6 0 0 0
