
&CONTROL
    calculation   = 'vc-relax'
    restart_mode  = 'from_scratch'
    prefix        = 'Landau_33'
    pseudo_dir    = '/cluster/scratch/mnoe/QE/pps'
    outdir        = './'
    forc_conv_thr = 1.0d-7
    etot_conv_thr = 1.0d-7

/
&SYSTEM
    ibrav       = 0
    nat         = 16
    ntyp        = 2
    ecutwfc     = 120
    occupations = 'smearing'
    degauss     = 7.35d-4
    tot_charge  = -0.0
/
&ELECTRONS
    conv_thr    = 1.0d-8
    diagonalization = 'david'
/


&IONS
ion_dynamics = 'bfgs'
/

&CELL
cell_dynamics = 'bfgs'
cell_dofree = 'all'
/
CELL_PARAMETERS angstrom
        5.177959919             0.0             0.0
        0.0             5.177959919             0.0
        0.0             0.0            7.7496299744

ATOMIC_SPECIES
W 183.84 W_ONCV_LDA-4.0.upf
O 15.9994 O_ONCV_LDA-3.0.upf

ATOMIC_POSITIONS crystal
W       0.24999999999991593	0.24999999999985023	0.20691661328065555	 0 0 0
W       0.7500000229999263	0.7500000229999723	0.7930834017161541	 0 0 0
W       0.7500000230000246	0.7500000230000637	0.29308340171934255	 0 0 0
W       0.24999999999990055	0.2500000000000473	0.7069165982838461	 0 0 0
O      0.24999999999964295	0.2499999999998869	0.47046861733415196	 0 0 0
O      0.7500000229999901	0.7500000230004257	0.5295313826707526	 0 0 0
O      0.7500000229998308	0.750000023000025	0.02953139566585475	 0 0 0
O      0.2499999999996945	0.250000000000071	0.9704686173292363	 0 0 0
O       0.5073386129582358	0.4926613410416689	0.2500000000000553	 0 0 0
O       0.4926613870769885	0.5073386589230514	0.7499999999999981	 0 0 0
O       -0.007338629957883681	1.0073386589577016	0.2500000000000054	 0 0 0
O       1.0073385669234933	-0.0073385959233611756	0.7500000000002695	 0 0 0
O       1.0073386589579143	0.5073386129578652	0.2500000000002072	 0 0 0
O       -0.007338595923037691	0.492661387076957	0.7499999999999674	 0 0 0
O       0.4926613410419281	-0.007338629958005223	0.2499999999998436	 0 0 0
O       0.507338658923516	1.0073385669234296	0.7499999999996636	 0 0 0

K_POINTS automatic
9 9 6 0 0 0
