
&CONTROL
    calculation   = 'vc-relax'
    restart_mode  = 'from_scratch'
    prefix        = 'Landau_33'
    pseudo_dir    = '/cluster/scratch/mnoe/QE/pps'
    outdir        = './'
    forc_conv_thr = 1.0d-7
    etot_conv_thr = 1.0d-7

/
&SYSTEM
    ibrav       = 0
    nat         = 32
    ntyp        = 2
    ecutwfc     = 120
    occupations = 'smearing'
    degauss     = 7.35d-4
    tot_charge  = -0.0
/
&ELECTRONS
    conv_thr    = 1.0d-8
    diagonalization = 'david'
/


&IONS
ion_dynamics = 'bfgs'
/

&CELL
cell_dynamics = 'bfgs'
cell_dofree = 'all'
/
CELL_PARAMETERS angstrom
        7.3236460686         0.0000000000         0.0000000000
        0.0000000000         7.7495899200         0.0000000000
        0.0000000000         0.0000000000         7.3236460686

ATOMIC_SPECIES
W 183.84 W_ONCV_LDA-4.0.upf
O 15.9994 O_ONCV_LDA-3.0.upf

ATOMIC_POSITIONS crystal
W 0.25	0.2687265900174874	0.0	 0 0 0
W 0.7499999301873046	0.7312734099825126	0.0	 0 0 0
W 0.25	0.23127342934580583	0.5	 0 0 0
W 0.7499999301873046	0.768726694279585	0.5	 0 0 0
W 0.7499999301873046	0.2687265900174874	0.5	 0 0 0
W 0.25	0.7312734099825126	0.5	 0 0 0
W 0.7499999301873046	0.23127342934580583	0.0	 0 0 0
W 0.25	0.768726694279585	0.0	 0 0 0
O 0.25	0.004742068813299558	0.0	 0 0 0
O 0.7499999301873046	0.9952578625575376	0.0	 0 0 0
O 0.25	0.4952579668196352	0.5	 0 0 0
O 0.7499999301873046	0.5047421374424624	0.5	 0 0 0
O 0.7499999301873046	0.004742068813299558	0.5	 0 0 0
O 0.25	0.9952578625575376	0.5	 0 0 0
O 0.7499999301873046	0.4952579668196352	0.0	 0 0 0
O 0.25	0.5047421374424624	0.0	 0 0 0
O 0.5	0.25	0.48165378283734966	 0 0 0
O 0.5	0.7500000504494021	0.5183463281513345	 0 0 0
O 0.0	0.25	0.9816538158373497	 0 0 0
O 0.0	0.7500000504494021	0.018346110990433165	 0 0 0
O 0.5	0.25	0.018346110990433165	 0 0 0
O 0.5	0.7500000504494021	0.9816538158373497	 0 0 0
O 0.0	0.25	0.5183463281513345	 0 0 0
O 0.0	0.7500000504494021	0.48165378283734966	 0 0 0
O 0.7316537416613609	0.25	0.7499999301873046	 0 0 0
O 0.26834614734995466	0.7500000504494021	0.25	 0 0 0
O 0.76834639796403	0.25	0.25	 0 0 0
O 0.23165379883734968	0.7500000504494021	0.7499999301873046	 0 0 0
O 0.26834614734995466	0.25	0.7499999301873046	 0 0 0
O 0.7316537416613609	0.7500000504494021	0.25	 0 0 0
O 0.23165379883734968	0.25	0.25	 0 0 0
O 0.76834639796403	0.7500000504494021	0.7499999301873046	 0 0 0

K_POINTS automatic
6 6 6 0 0 0
