&CONTROL
    calculation   = 'scf'
    restart_mode  = 'from_scratch'
    prefix        = 'Landau_11'
    pseudo_dir    = '/cluster/scratch/mnoe/QE/pps'
    outdir        = './'
/
&SYSTEM
    ibrav       = 0
    nat         = 32
    ntyp        = 2
    ecutwfc     = 120
    occupations = 'smearing'
    degauss     = 7.35d-4
    tot_charge  = -0.6
/
&ELECTRONS
    conv_thr    = 1.0d-8
    diagonalization = 'david'
/

CELL_PARAMETERS angstrom
   7.361223398   0.000000000   0.000000000
   0.000000000   7.631731298   0.000000000
   0.000000000   0.000000000   7.361223398

ATOMIC_SPECIES
W 183.84 W_ONCV_LDA-4.0.upf
O 15.9994 O_ONCV_LDA-3.0.upf

ATOMIC_POSITIONS crystal
W 0.259540027	0.279518877660806	-0.989960035	
W 0.7399600224489601	0.7204811223391939	-0.990460006	
W 0.240459989	0.22048113812363393	-0.489960002	
W 0.7600399854489601	0.7795189019784459	-0.490459989	
W 0.7404599934489601	0.279518877660806	-0.510039981	
W 0.260039981	0.7204811223391939	-0.509540027	
W 0.7595400144489601	0.22048113812363393	-1.0100399979999999	
W 0.239960002	0.7795189019784459	-1.009540027	
O 0.270330013	0.007686740714010644	-0.979770023	
O 0.7297700104489602	0.9923132558127494	-0.979670003	
O 0.229670003	0.4923132801303893	-0.479770007	
O 0.7702299964489602	0.5076867441872506	-0.479670003	
O 0.7296699904489601	0.007686740714010644	-0.5202299930000001	
O 0.270229993	0.9923132558127494	-0.5203300129999999	
O 0.7703300164489602	0.4923132801303893	-1.020230009	
O 0.229770007	0.5076867441872506	-1.0203300290000001	
O 0.495759952	0.274280015	-0.5448165086278511	
O 0.502779955	0.7328100417665999	-0.45518344948562905	
O 0.004239976	0.22572	-1.0448165086278511	
O 0.997220012	0.7671899817665999	-0.9551834813364687	
O 0.504239983	0.274280015	-0.9551834813364687	
O 0.497220012	0.7328100417665999	-1.0448165086278511	
O 0.995760017	0.22572	-0.45518344948562905	
O 0.002779991	0.7671899817665999	-0.5448165086278511	
O 0.7051834460366689	0.232809984	-0.25278000355103986	
O 0.2948164960768112	0.7257200267666	-0.754239983	
O 0.7948165470654108	0.26719	-0.752779955	
O 0.20518347537214884	0.7742799967665999	-0.25423998855103985	
O 0.2948164960768112	0.232809984	-1.24722002455104	
O 0.7051834460366689	0.7257200267666	-0.745759952	
O 0.20518347537214884	0.26719	-0.747220012	
O 0.7948165470654108	0.7742799967665999	-1.24576002955104	

K_POINTS automatic
6 6 6 0 0 0
