
&CONTROL
    calculation   = 'vc-relax'
    restart_mode  = 'from_scratch'
    prefix        = 'Landau_12'
    pseudo_dir    = '/cluster/scratch/mnoe/QE/pps'
    outdir        = './'
    forc_conv_thr = 1.0d-7
    etot_conv_thr = 1.0d-7

/
&SYSTEM
    ibrav       = 0
    nat         = 32
    ntyp        = 2
    ecutwfc     = 120
    occupations = 'smearing'
    degauss     = 7.35d-4
    tot_charge  = -0.0
/
&ELECTRONS
    conv_thr    = 1.0d-8
    diagonalization = 'david'
/


&IONS
ion_dynamics = 'bfgs'
/

&CELL
cell_dynamics = 'bfgs'
cell_dofree = 'all'
/
CELL_PARAMETERS angstrom
        7.3236460686         0.0000000000         0.0000000000
        0.0000000000         7.7495899200         0.0000000000
        0.0000000000         0.0000000000         7.3236460686

ATOMIC_SPECIES
W 183.84 W_ONCV_LDA-4.0.upf
O 15.9994 O_ONCV_LDA-3.0.upf

ATOMIC_POSITIONS crystal
W 0.25	0.2801872436307501	0.0	 0 0 0
W 0.7499999911081879	0.7198127563692499	0.0	 0 0 0
W 0.25	0.21981277192498816	0.5	 0 0 0
W 0.7499999911081879	0.780187229858636	0.5	 0 0 0
W 0.7499999911081879	0.2801872436307501	0.5	 0 0 0
W 0.25	0.7198127563692499	0.5	 0 0 0
W 0.7499999911081879	0.21981277192498816	0.0	 0 0 0
W 0.25	0.780187229858636	0.0	 0 0 0
O 0.25	0.007864290739729732	0.0	 0 0 0
O 0.7499999911081879	0.992135720589767	0.0	 0 0 0
O 0.25	0.49213570681765284	0.5	 0 0 0
O 0.7499999911081879	0.507864279410233	0.5	 0 0 0
O 0.7499999911081879	0.007864290739729732	0.5	 0 0 0
O 0.25	0.992135720589767	0.5	 0 0 0
O 0.7499999911081879	0.49213570681765284	0.0	 0 0 0
O 0.25	0.507864279410233	0.0	 0 0 0
O 0.5	0.25	0.45363022978546225	 0 0 0
O 0.5	0.7499999933360738	0.5463697555539002	 0 0 0
O 0.0	0.25	0.9536302627854623	 0 0 0
O 0.0	0.7499999933360738	0.04636977065386659	 0 0 0
O 0.5	0.25	0.04636977065386659	 0 0 0
O 0.5	0.7499999933360738	0.9536302627854623	 0 0 0
O 0.0	0.25	0.5463697555539002	 0 0 0
O 0.0	0.7499999933360738	0.45363022978546225	 0 0 0
O 0.7036302533379118	0.25	0.7499999911081879	 0 0 0
O 0.29636976132272563	0.7499999933360738	0.25	 0 0 0
O 0.7963697644457123	0.25	0.25	 0 0 0
O 0.20363024578546224	0.7499999933360738	0.7499999911081879	 0 0 0
O 0.29636976132272563	0.25	0.7499999911081879	 0 0 0
O 0.7036302533379118	0.7499999933360738	0.25	 0 0 0
O 0.20363024578546224	0.25	0.25	 0 0 0
O 0.7963697644457123	0.7499999933360738	0.7499999911081879	 0 0 0

K_POINTS automatic
6 6 6 0 0 0
