
&CONTROL
    calculation   = 'vc-relax'
    restart_mode  = 'from_scratch'
    prefix        = 'Landau_7'
    pseudo_dir    = '/cluster/scratch/mnoe/QE/pps'
    outdir        = './'
    forc_conv_thr = 1.0d-7
    etot_conv_thr = 1.0d-7

/
&SYSTEM
    ibrav       = 0
    nat         = 32
    ntyp        = 2
    ecutwfc     = 120
    occupations = 'smearing'
    degauss     = 7.35d-4
    tot_charge  = -0.0
/
&ELECTRONS
    conv_thr    = 1.0d-8
    diagonalization = 'david'
/


&IONS
ion_dynamics = 'bfgs'
/

&CELL
cell_dynamics = 'bfgs'
cell_dofree = 'all'
/
CELL_PARAMETERS angstrom
        7.3236460686         0.0000000000         0.0000000000
        0.0000000000         7.7495899200         0.0000000000
        0.0000000000         0.0000000000         7.3236460686

ATOMIC_SPECIES
W 183.84 W_ONCV_LDA-4.0.upf
O 15.9994 O_ONCV_LDA-3.0.upf

ATOMIC_POSITIONS crystal
W 0.253040018	0.28112875016480193	-0.99681005	 0 0 0
W 0.7468100460064873	0.7188712498351981	-0.996960015	 0 0 0
W 0.246959999	0.21887126508479263	-0.496810001	 0 0 0
W 0.7531899790064872	0.7811287579022328	-0.496959999	 0 0 0
W 0.7469600110064872	0.28112875016480193	-0.503189983	 0 0 0
W 0.253189983	0.7188712498351981	-0.503040018	 0 0 0
W 0.7530400140064872	0.21887126508479263	-1.003189983	 0 0 0
W 0.246810001	0.7811287579022328	-1.003040018	 0 0 0
O 0.25646999	0.008125317727185204	-0.993560045	 0 0 0
O 0.7435600410064872	0.9918746900313293	-0.993530026	 0 0 0
O 0.24353001	0.4918746977687602	-0.493559996	 0 0 0
O 0.7564399830064873	0.5081253099686707	-0.49353000999999996	 0 0 0
O 0.7435300220064872	0.008125317727185204	-0.506439987	 0 0 0
O 0.256439987	0.9918746900313293	-0.50646999	 0 0 0
O 0.7564699370064872	0.4918746977687602	-1.006439987	 0 0 0
O 0.243559996	0.5081253099686707	-1.006469941	 0 0 0
O 0.498650086	0.257730007	-0.5487529636543163	 0 0 0
O 0.500879995	0.7445299587439181	-0.45124701210906376	 0 0 0
O 0.001349986	0.242269993	-1.0487529636543163	 0 0 0
O 0.999120005	0.7554700487439182	-0.9512470113343309	 0 0 0
O 0.501349979	0.257730007	-0.9512470113343309	 0 0 0
O 0.499120005	0.7445299587439181	-1.0487529636543163	 0 0 0
O 0.998649988	0.242269993	-0.45124701210906376	 0 0 0
O 0.000880003	0.7554700487439182	-0.5487529636543163	 0 0 0
O 0.7012470001025765	0.244529986	-0.2508800069935127	 0 0 0
O 0.29875295966080356	0.7422700117439182	-0.751349979	 0 0 0
O 0.7987529758844489	0.255470014	-0.750879995	 0 0 0
O 0.20124702034568373	0.7577299957439182	-0.2513499899935127	 0 0 0
O 0.29875295966080356	0.244529986	-1.2491200089935126	 0 0 0
O 0.7012470001025765	0.7422700117439182	-0.748650086	 0 0 0
O 0.20124702034568373	0.255470014	-0.749120005	 0 0 0
O 0.7987529758844489	0.7577299957439182	-1.2486499919935126	 0 0 0

K_POINTS automatic
6 6 6 0 0 0
