&CONTROL
    calculation   = 'scf'
    restart_mode  = 'from_scratch'
    prefix        = 'Landau_1'
    pseudo_dir    = '/cluster/scratch/mnoe/QE/pps'
    outdir        = './'
/
&SYSTEM
    ibrav       = 0
    nat         = 32
    ntyp        = 2
    ecutwfc     = 120
    occupations = 'smearing'
    degauss     = 7.35d-4
    tot_charge  = -0.2
/
&ELECTRONS
    conv_thr    = 1.0d-8
    diagonalization = 'david'
/

CELL_PARAMETERS angstrom
   7.327276654   0.000000000   0.000000000
   0.000000000   7.745945886   0.000000000
   0.000000000   0.000000000   7.327276654

ATOMIC_SPECIES
W 183.84 W_ONCV_LDA-4.0.upf
O 15.9994 O_ONCV_LDA-3.0.upf

ATOMIC_POSITIONS crystal
W 0.24820345739942185	0.28164883728731194	-5.144303516695266e-05	
W 0.7500514430614309	0.7183511627126881	-0.0017965401032997929	
W 0.25179654260057815	0.21835117778284335	0.4999485566152141	
W 0.7499485558423489	0.7816488084621249	0.49820345739942185	
W 0.7517965401295638	0.28164883728731194	0.5000514433847859	
W 0.2499485566152141	0.7183511627126881	0.5017965426005782	
W 0.7482034587742161	0.21835117778284335	5.1444183914994986e-05	
W 0.2500514433847859	0.7816488084621249	0.0017965412520478353	
O 0.24802415236376427	0.008262472197440637	-0.0014334359797960386	
O 0.751433434507693	-0.00826245067070103	-0.001975845188902948	
O 0.2519758451889029	0.49173752050411196	0.4985665610734155	
O 0.7485665628977198	0.5082624506707011	0.49802415316289333	
O 0.7519758437167998	0.008262472197440637	0.5014334380775098	
O 0.24856656027428642	-0.00826245067070103	0.501975845988032	
O 0.748024153688613	0.49173752050411196	0.0014334356301770705	
O 0.2514334372783808	0.5082624506707011	0.00197584483928398	
O 0.5006358067704262	0.2478698217099508	0.4500563457159215	
O 0.5001303568315164	0.7513669977741392	0.549943623599202	
O -0.0006358051721680329	0.25213017679168215	0.9500563787159215	
O -0.00013035608233293955	0.7486329803739322	0.04994366831973123	
O 0.4993641932295738	0.2478698217099508	0.04994366831973123	
O 0.49986964316848354	0.7513669977741392	0.9500563787159215	
O 0.0006358042731478241	0.25213017679168215	0.549943623599202	
O 0.0001303551833127308	0.7486329803739322	0.4500563457159215	
O 0.7000563775232822	0.2513670087250762	0.7498696436942032	
O 0.2999436531615943	0.7521301673890576	0.2506358067704262	
O 0.7999436247216861	0.24863298977655673	0.2498696464149454	
O 0.20005636171592156	0.7478698107590137	0.7506358072961458	
O 0.2999436531615943	0.2513670087250762	0.7501303582063107	
O 0.7000563775232822	0.7521301673890576	0.2493641964760357	
O 0.20005636171592156	0.24863298977655673	0.25013035683151646	
O 0.7999436247216861	0.7478698107590137	0.7493641946043681	

K_POINTS automatic
6 6 6 0 0 0
