
&CONTROL
    calculation   = 'vc-relax'
    restart_mode  = 'from_scratch'
    prefix        = 'Landau_1'
    pseudo_dir    = '/cluster/scratch/mnoe/QE/pps'
    outdir        = './'
    forc_conv_thr = 1.0d-7
    etot_conv_thr = 1.0d-7

/
&SYSTEM
    ibrav       = 0
    nat         = 32
    ntyp        = 2
    ecutwfc     = 120
    occupations = 'smearing'
    degauss     = 7.35d-4
    tot_charge  = -0.0
/
&ELECTRONS
    conv_thr    = 1.0d-8
    diagonalization = 'david'
/


&IONS
ion_dynamics = 'bfgs'
/

&CELL
cell_dynamics = 'bfgs'
cell_dofree = 'all'
/
CELL_PARAMETERS angstrom
        7.3236460686         0.0000000000         0.0000000000
        0.0000000000         7.7495899200         0.0000000000
        0.0000000000         0.0000000000         7.3236460686

ATOMIC_SPECIES
W 183.84 W_ONCV_LDA-4.0.upf
O 15.9994 O_ONCV_LDA-3.0.upf

ATOMIC_POSITIONS crystal
W 0.249540001	0.2818104792469909	0.00044	 0 0 0
W 0.7504600157367488	0.7181895207530091	0.999559974	 0 0 0
W 0.250459999	0.21818953576946237	0.500439994	 0 0 0
W 0.7495399837367488	0.7818104487570401	0.499560006	 0 0 0
W 0.7504600157367488	0.2818104792469909	0.499560006	 0 0 0
W 0.249540001	0.7181895207530091	0.500439994	 0 0 0
W 0.7495399837367488	0.21818953576946237	0.999559974	 0 0 0
W 0.250459999	0.7818104487570401	0.00044	 0 0 0
O 0.249149997	0.008306508260982129	0.00014	 0 0 0
O 0.7508500357367488	0.9916935143935007	0.999860009	 0 0 0
O 0.25085002	0.4916934839035499	0.500140023	 0 0 0
O 0.7491499637367488	0.5083064856064993	0.499859977	 0 0 0
O 0.7508500357367488	0.008306508260982129	0.499859977	 0 0 0
O 0.249149997	0.9916935143935007	0.500140023	 0 0 0
O 0.7491499637367488	0.4916934839035499	0.999860009	 0 0 0
O 0.25085002	0.5083064856064993	0.00014	 0 0 0
O 0.500129996	0.249119995	0.4496610993202682	 0 0 0
O 0.499870004	0.750880021246798	0.5503388682226874	 0 0 0
O 0.999869972	0.250880005	0.9496611323202682	 0 0 0
O 0.000129938	0.749120010246798	0.05033891621904219	 0 0 0
O 0.499870004	0.249119995	0.05033891621904219	 0 0 0
O 0.500129996	0.750880021246798	0.9496611323202682	 0 0 0
O 0.000129938	0.250880005	0.5503388682226874	 0 0 0
O 0.999869972	0.749120010246798	0.4496610993202682	 0 0 0
O 0.6996611320405638	0.249809988	0.7498100027367488	 0 0 0
O 0.3003389004164806	0.750189997246798	0.250190013	 0 0 0
O 0.8003388684859386	0.250190012	0.249809987	 0 0 0
O 0.19966111532026823	0.749809973246798	0.7501899967367488	 0 0 0
O 0.3003389004164806	0.249809988	0.7501899967367488	 0 0 0
O 0.6996611320405638	0.750189997246798	0.249809987	 0 0 0
O 0.19966111532026823	0.250190012	0.250190013	 0 0 0
O 0.8003388684859386	0.749809973246798	0.7498100027367488	 0 0 0

K_POINTS automatic
6 6 6 0 0 0
