&CONTROL
    calculation   = 'scf'
    restart_mode  = 'from_scratch'
    prefix        = 'chempot_8'
    pseudo_dir    = '/cluster/scratch/mnoe/QE/pps'
    outdir        = './'
/
&SYSTEM
    ibrav       = 0
    nat         = 32 
    ntyp        = 2
    ecutwfc     = 120
    occupations = 'smearing'
    degauss     = 7.35d-4
    tot_charge  = -.80
/
&ELECTRONS
    conv_thr    = 1.0d-8
    diagonalization = 'david'
/
CELL_PARAMETERS angstrom
   7.316942702   0.000000000   0.000000000
   0.000000000   7.671236705   0.000000000
   0.000000000   0.000000000   7.349018200


ATOMIC_SPECIES
W 183.84 W_ONCV_LDA-4.0.upf
O 15.9994 O_ONCV_LDA-3.0.upf

ATOMIC_POSITIONS crystal
W 0.236589993         0.281860003         0.012670000
W 0.763409991         0.718139997         0.987330006
W 0.263410007         0.218140012         0.512669994
W 0.736590009         0.781859972         0.487330006
W 0.763409991         0.281860003         0.487330006
W 0.236589993         0.718139997         0.512669994
W 0.736590009         0.218140012         0.987330006
W 0.263410007         0.781859972         0.012670000
O 0.225260002         0.008320000         0.003940000
O 0.774739982         0.991680023         0.996060014
O 0.274739982         0.491679992         0.503939986
O 0.725260018         0.508319977         0.496060014
O 0.774739982         0.008320000         0.496060014
O 0.225260002         0.991680023         0.503939986
O 0.725260018         0.491679992         0.996060014
O 0.274739982         0.508319977         0.003940000
O 0.503669967         0.224620002         0.449540004
O 0.496330033         0.775379998         0.550459963
O 0.996330033         0.275380029         0.949540037
O 0.003669977         0.724619971         0.050460012
O 0.496330033         0.224620002         0.050460012
O 0.503669967         0.775379998         0.949540037
O 0.003669977         0.275380029         0.550459963
O 0.996330033         0.724619971         0.449540004
O 0.699540037         0.244459994         0.744440030
O 0.300459996         0.755539991         0.255559986
O 0.800459963         0.255540006         0.244440079
O 0.199540020         0.744459979         0.755559970
O 0.300459996         0.244459994         0.755559970
O 0.699540037         0.755539991         0.244440079
O 0.199540020         0.255540006         0.255559986
O 0.800459963         0.744459979         0.744440030

K_POINTS automatic
6 6 6 0 0 0
