&CONTROL
    calculation   = 'scf'
    restart_mode  = 'from_scratch'
    prefix        = 'Landau_10'
    pseudo_dir    = '/cluster/scratch/mnoe/QE/pps'
    outdir        = './'
/
&SYSTEM
    ibrav       = 0
    nat         = 16
    ntyp        = 2
    ecutwfc     = 120
    occupations = 'smearing'
    degauss     = 7.35d-4
    tot_charge  = -0.025
/
&ELECTRONS
    conv_thr    = 1.0d-8
    diagonalization = 'david'
/

CELL_PARAMETERS angstrom
   5.224683449   0.000000000   0.000000000
   0.000000000   5.224683449   0.000000000
   0.000000000   0.000000000   7.704194229

ATOMIC_SPECIES
W 183.84 W_ONCV_LDA-4.0.upf
O 15.9994 O_ONCV_LDA-3.0.upf

ATOMIC_POSITIONS crystal
W       0.24999999999997452	0.24999999999995462	0.2147250280547441	
W       0.7500000229999777	0.7500000229999916	0.7852749869442891	
W       0.7500000230000075	0.7500000230000193	0.2852749869452553	
W       0.24999999999996986	0.2500000000000143	0.7147250130557109	
O      0.2499999999998918	0.24999999999996572	0.4852453567073188	
O      0.750000022999997	0.750000023000129	0.5147546432941674	
O      0.7500000229999487	0.7500000230000076	0.014754656292683258	
O      0.24999999999990744	0.25000000000002154	0.9852453567058291	
O       0.4669641084115866	0.5330358455883845	0.25000000000001676	
O       0.5330358915990874	0.46696415440092465	0.7499999999999994	
O       0.0330358745885201	0.9669641544114247	0.2500000000000016	
O       0.9669640624010585	0.033035908598981464	0.7500000000000817	
O       0.9669641544114892	0.4669641084114743	0.2500000000000628	
O       0.03303590859907949	0.5330358915990779	0.7499999999999901	
O       0.5330358455884631	0.03303587458848327	0.2499999999999526	
O       0.4669641544010655	0.9669640624010392	0.7499999999998981	

K_POINTS automatic
9 9 6 0 0 0
