&CONTROL
    calculation   = 'scf'
    restart_mode  = 'from_scratch'
    prefix        = 'Landau_15'
    pseudo_dir    = '/cluster/scratch/mnoe/QE/pps'
    outdir        = './'
/
&SYSTEM
    ibrav       = 0
    nat         = 32
    ntyp        = 2
    ecutwfc     = 120
    occupations = 'smearing'
    degauss     = 7.35d-4
    tot_charge  = -1.0
/
&ELECTRONS
    conv_thr    = 1.0d-8
    diagonalization = 'david'
/

CELL_PARAMETERS angstrom
   7.387953814   0.000000000   0.000000000
   0.000000000   7.615999342   0.000000000
   0.000000000   0.000000000   7.417438099

ATOMIC_SPECIES
W 183.84 W_ONCV_LDA-4.0.upf
O 15.9994 O_ONCV_LDA-3.0.upf

ATOMIC_POSITIONS crystal
W 0.236129994	0.2774028652291746	0.0131	
W 0.7638699823073922	0.7225971347708254	0.986899942	
W 0.263870006	0.2225971512516133	0.513100026	
W 0.7361299703073922	0.777402880133602	0.486900007	
W 0.7638699823073922	0.2774028652291746	0.486900007	
W 0.236129994	0.7225971347708254	0.513100026	
W 0.7361299703073922	0.2225971512516133	0.986899942	
W 0.263870006	0.777402880133602	0.0131	
O 0.224409998	0.007105743488391713	0.00408	
O 0.7755899943073923	0.9928942484150607	0.995920023	
O 0.275590018	0.49289426331948816	0.504080009	
O 0.7244099583073922	0.5071057515849393	0.495919991	
O 0.7755899943073923	0.007105743488391713	0.495919991	
O 0.224409998	0.9928942484150607	0.504080009	
O 0.7244099583073922	0.49289426331948816	0.995920023	
O 0.275590018	0.5071057515849393	0.00408	
O 0.503790033	0.223739997	0.4604385828241391	
O 0.496209967	0.7762600562118198	0.5395614330418643	
O 0.996209967	0.276260003	0.960438615824139	
O 0.003790021	0.7237400192118199	0.03956139171379738	
O 0.496209967	0.223739997	0.03956139171379738	
O 0.503790033	0.7762600562118198	0.960438615824139	
O 0.003790021	0.276260003	0.5395614330418643	
O 0.996209967	0.7237400192118199	0.4604385828241391	
O 0.7104385906507434	0.244269997	0.7442499443073922	
O 0.2895613934832531	0.7557300252118199	0.255749999	
O 0.789561456734472	0.255730003	0.244250066	
O 0.2104385988241391	0.7442699892118199	0.7557500083073923	
O 0.2895613934832531	0.244269997	0.7557500083073923	
O 0.7104385906507434	0.7557300252118199	0.244250066	
O 0.2104385988241391	0.255730003	0.255749999	
O 0.789561456734472	0.7442699892118199	0.7442499443073922	

K_POINTS automatic
6 6 6 0 0 0
