&CONTROL
    calculation   = 'scf'
    restart_mode  = 'from_scratch'
    prefix        = 'Landau_3'
    pseudo_dir    = '/cluster/scratch/mnoe/QE/pps'
    outdir        = './'
/
&SYSTEM
    ibrav       = 0
    nat         = 32
    ntyp        = 2
    ecutwfc     = 120
    occupations = 'smearing'
    degauss     = 7.35d-4
    tot_charge  = -0.2
/
&ELECTRONS
    conv_thr    = 1.0d-8
    diagonalization = 'david'
/

CELL_PARAMETERS angstrom
   7.363583512   0.000000798   0.000000011
   0.000000852   7.720064227   0.000000587
   0.000000011   0.000000563   7.363583056

ATOMIC_SPECIES
W 183.84 W_ONCV_LDA-4.0.upf
O 15.9994 O_ONCV_LDA-3.0.upf

ATOMIC_POSITIONS crystal
W 0.25	0.2794721097304523	0.0	
W 0.7499999873067826	0.7205278902695478	0.0	
W 0.25	0.22052790606287379	0.5	
W 0.7499999873067826	0.7794721033235609	0.5	
W 0.7499999873067826	0.2794721097304523	0.5	
W 0.25	0.7205278902695478	0.5	
W 0.7499999873067826	0.22052790606287379	0.0	
W 0.25	0.7794721033235609	0.0	
O 0.25	0.0076694670569635555	0.0	
O 0.7499999873067826	0.9923305392831887	0.0	
O 0.25	0.4923305328762973	0.5	
O 0.7499999873067826	0.5076694607168113	0.5	
O 0.7499999873067826	0.0076694670569635555	0.5	
O 0.25	0.9923305392831887	0.5	
O 0.7499999873067826	0.4923305328762973	0.0	
O 0.25	0.5076694607168113	0.0	
O 0.5	0.25	0.4553788728795181	
O 0.5	0.7499999968998913	0.5446211203002427	
O 0.0	0.25	0.9553789058795181	
O 0.0	0.7499999968998913	0.044621120907351486	
O 0.5	0.25	0.044621120907351486	
O 0.5	0.7499999968998913	0.9553789058795181	
O 0.0	0.25	0.5446211203002427	
O 0.0	0.7499999968998913	0.4553788728795181	
O 0.7053788923929747	0.25	0.7499999873067826	
O 0.29462111442726446	0.7499999968998913	0.25	
O 0.79462113299346	0.25	0.25	
O 0.20537888887951813	0.7499999968998913	0.7499999873067826	
O 0.29462111442726446	0.25	0.7499999873067826	
O 0.7053788923929747	0.7499999968998913	0.25	
O 0.20537888887951813	0.25	0.25	
O 0.79462113299346	0.7499999968998913	0.7499999873067826	

K_POINTS automatic
6 6 6 0 0 0
