&CONTROL
    calculation   = 'scf'
    restart_mode  = 'from_scratch'
    prefix        = 'Landau_6'
    pseudo_dir    = '/cluster/scratch/mnoe/QE/pps'
    outdir        = './'
/
&SYSTEM
    ibrav       = 0
    nat         = 32
    ntyp        = 2
    ecutwfc     = 120
    occupations = 'smearing'
    degauss     = 7.35d-4
    tot_charge  = -0.6
/
&ELECTRONS
    conv_thr    = 1.0d-8
    diagonalization = 'david'
/

CELL_PARAMETERS angstrom
   7.363239970   0.000000000   0.000000000
   0.000000000   7.702808863   0.000000000
   0.000000000   0.000000000   7.366497926

ATOMIC_SPECIES
W 183.84 W_ONCV_LDA-4.0.upf
O 15.9994 O_ONCV_LDA-3.0.upf

ATOMIC_POSITIONS crystal
W 0.24139620903809017	0.2795066209219057	0.0020071682846174344	
W 0.7524961971967848	0.7204933790780943	-0.00847482541538258	
W 0.25860379096190983	0.22049339485995476	0.5020071683129853	
W 0.7475037818041231	0.7795066141595808	0.49152516171298527	
W 0.7586037716041232	0.2795066209219057	0.4979928316870147	
W 0.24750379096190983	0.7204933790780943	0.5084748382870147	
W 0.7413962073967848	0.22049339485995476	-0.00200716138461745	
W 0.25249620903809017	0.7795066141595808	0.008474832315382565	
O 0.23881182060722514	0.00767886892899452	-0.004336982253446095	
O 0.7592898011974574	-0.007678862348064695	-0.007594984353446083	
O 0.26118816882431245	0.4923211308896103	0.4956630041780915	
O 0.7407101725593939	0.5076788623480647	0.4924050098780915	
O 0.7611881509593938	0.00767886892899452	0.5043369887187388	
O 0.24071016582431246	-0.007678862348064695	0.5075949830187387	
O 0.7388118227974574	0.4923211308896103	0.004336980153446108	
O 0.25928982360722513	0.5076788623480647	0.007594982253446096	
O 0.5028587304582007	0.2381615142009123	0.45529448622608504	
O 0.4998227256582007	0.759167517450848	0.5447055065753109	
O -0.002858728996077782	0.26183847679908767	0.9552945192260851	
O 0.00017727070392222193	0.740832504667882	0.044705507881821344	
O 0.49714126954179927	0.2381615142009123	0.044705507881821344	
O 0.5001772743417993	0.759167517450848	0.9552945192260851	
O 0.0028587154582007082	0.26183847679908767	0.5447055065753109	
O -0.00017728424179929564	0.740832504667882	0.45529448622608504	
O 0.7052945059344569	0.25382780939170274	0.7485834964265311	
O 0.29470550126414713	0.7584118265856952	0.25318549476783647	
O 0.7947055190850787	0.24617218536424051	0.24858352266783645	
O 0.20529450222608506	0.7415881956582329	0.7531854880265311	
O 0.29470550126414713	0.25382780939170274	0.7514164930624904	
O 0.7052945059344569	0.7584118265856952	0.24681452473216356	
O 0.20529450222608506	0.24617218536424051	0.25141649683216355	
O 0.7947055190850787	0.7415881956582329	0.7468145014624903	

K_POINTS automatic
6 6 6 0 0 0
