&CONTROL
    calculation   = 'scf'
    restart_mode  = 'from_scratch'
    prefix        = 'Landau_14'
    pseudo_dir    = '/cluster/scratch/mnoe/QE/pps'
    outdir        = './'
/
&SYSTEM
    ibrav       = 0
    nat         = 32
    ntyp        = 2
    ecutwfc     = 120
    occupations = 'smearing'
    degauss     = 7.35d-4
    tot_charge  = -1.0
/
&ELECTRONS
    conv_thr    = 1.0d-8
    diagonalization = 'david'
/

CELL_PARAMETERS angstrom
   7.341036210   0.000000000   0.000000000
   0.000000000   7.659987126   0.000000000
   0.000000000   0.000000000   7.369496558

ATOMIC_SPECIES
W 183.84 W_ONCV_LDA-4.0.upf
O 15.9994 O_ONCV_LDA-3.0.upf

ATOMIC_POSITIONS crystal
W 0.237049992	0.28047333791574325	0.01223	
W 0.7629499676289664	0.7195266620842568	0.987770032	
W 0.262950008	0.21952667754494637	0.512229968	
W 0.7370500176289665	0.7804733211971207	0.48777	
W 0.7629499676289664	0.28047333791574325	0.48777	
W 0.237049992	0.7195266620842568	0.512229968	
W 0.7370500176289665	0.21952667754494637	0.987770032	
W 0.262950008	0.7804733211971207	0.01223	
O 0.226109989	0.007942231307499643	0.0038	
O 0.7738900036289664	0.9920577820180189	0.996200004	
O 0.273890011	0.4920577652993963	0.503799963	
O 0.7261099816289664	0.5079422179819811	0.496200004	
O 0.7738900036289664	0.007942231307499643	0.496200004	
O 0.226109989	0.9920577820180189	0.503799963	
O 0.7261099816289664	0.4920577652993963	0.996200004	
O 0.273890011	0.5079422179819811	0.0038	
O 0.503539971	0.225490008	0.45293067296750994	
O 0.496460029	0.7745100599103439	0.5470693092352467	
O 0.996459996	0.274509992	0.95293070596751	
O 0.003540039	0.725489984910344	0.0470693301331814	
O 0.496460029	0.225490008	0.0470693301331814	
O 0.503539971	0.7745100599103439	0.95293070596751	
O 0.003540039	0.274509992	0.5470693092352467	
O 0.996459996	0.725489984910344	0.45293067296750994	
O 0.7029306981357868	0.244650006	0.7446299536289664	
O 0.29706931966145655	0.755349985910344	0.255370022	
O 0.7970693166062802	0.255349994	0.244629978	
O 0.20293068896750996	0.7446499979103439	0.7553700316289664	
O 0.29706931966145655	0.244650006	0.7553700316289664	
O 0.7029306981357868	0.755349985910344	0.244629978	
O 0.20293068896750996	0.255349994	0.255370022	
O 0.7970693166062802	0.7446499979103439	0.7446299536289664	

K_POINTS automatic
6 6 6 0 0 0
