&CONTROL
    calculation   = 'scf'
    restart_mode  = 'from_scratch'
    prefix        = 'Landau_1'
    pseudo_dir    = '/cluster/scratch/mnoe/QE/pps'
    outdir        = './'
/
&SYSTEM
    ibrav       = 0
    nat         = 32
    ntyp        = 2
    ecutwfc     = 120
    occupations = 'smearing'
    degauss     = 7.35d-4
    tot_charge  = -0.6
/
&ELECTRONS
    conv_thr    = 1.0d-8
    diagonalization = 'david'
/

CELL_PARAMETERS angstrom
   7.330332778   0.000000000   0.000000000
   0.000000000   7.743951235   0.000000000
   0.000000000   0.000000000   7.330479294

ATOMIC_SPECIES
W 183.84 W_ONCV_LDA-4.0.upf
O 15.9994 O_ONCV_LDA-3.0.upf

ATOMIC_POSITIONS crystal
W 0.249080001	0.28146381297592665	0.00087	
W 0.7509199638939904	0.7185361870240733	0.99913004	
W 0.250919999	0.21853620215569897	0.500869993	
W 0.7490800318939904	0.7814637860563202	0.499130007	
W 0.7509199638939904	0.28146381297592665	0.499130007	
W 0.249080001	0.7185361870240733	0.500869993	
W 0.7490800318939904	0.21853620215569897	0.99913004	
W 0.250919999	0.7814637860563202	0.00087	
O 0.248289999	0.00821206608785704	0.00027	
O 0.7517099668939904	0.9917879541480054	0.999729981	
O 0.251710001	0.491787927228399	0.500270019	
O 0.7482900288939904	0.5082120458519946	0.499729981	
O 0.7517099668939904	0.00821206608785704	0.499729981	
O 0.248289999	0.9917879541480054	0.500270019	
O 0.7482900288939904	0.491787927228399	0.999729981	
O 0.251710001	0.5082120458519946	0.00027	
O 0.500249997	0.248249988	0.45050876656214567	
O 0.499750003	0.751749966974384	0.549491204781499	
O 0.999750035	0.251749996	0.9505087995621457	
O 0.000249982	0.748250005974384	0.04949124575233754	
O 0.499750003	0.248249988	0.04949124575233754	
O 0.500249997	0.751749966974384	0.9505087995621457	
O 0.000249982	0.251749996	0.549491204781499	
O 0.999750035	0.748250005974384	0.45050876656214567	
O 0.7005087973245105	0.249620007	0.7496200048939904	
O 0.29949123133184474	0.750380010974384	0.250379977	
O 0.7994912068875086	0.250379978	0.249619958	
O 0.20050878256214572	0.749620023974384	0.7503799908939904	
O 0.29949123133184474	0.249620007	0.7503799908939904	
O 0.7005087973245105	0.750380010974384	0.249619958	
O 0.20050878256214572	0.250379978	0.250379977	
O 0.7994912068875086	0.749620023974384	0.7496200048939904	

K_POINTS automatic
6 6 6 0 0 0
