&CONTROL
    calculation   = 'scf'
    restart_mode  = 'from_scratch'
    prefix        = 'Landau_6'
    pseudo_dir    = '/cluster/scratch/mnoe/QE/pps'
    outdir        = './'
/
&SYSTEM
    ibrav       = 0
    nat         = 32
    ntyp        = 2
    ecutwfc     = 120
    occupations = 'smearing'
    degauss     = 7.35d-4
    tot_charge  = -0.68
/
&ELECTRONS
    conv_thr    = 1.0d-8
    diagonalization = 'david'
/

CELL_PARAMETERS angstrom
   7.323233189   0.000000000   0.000000000
   0.000000000   7.746014207   0.000000000
   0.000000000   0.000000000   7.324565054

ATOMIC_SPECIES
W 183.84 W_ONCV_LDA-4.0.upf
O 15.9994 O_ONCV_LDA-3.0.upf

ATOMIC_POSITIONS crystal
W         0.247229993         0.281860003         0.002620000
W         0.752769990         0.718139997         0.997380027
W         0.252770007         0.218140012         0.502619973
W         0.747230010         0.781859972         0.497379995
W         0.752769990         0.281860003         0.497379995
W         0.247229993         0.718139997         0.502619973
W         0.747230010         0.218140012         0.997380027
W         0.252770007         0.781859972         0.002620000
O         0.244880007         0.008320000         0.000820000
O         0.755120009         0.991680023         0.999180046
O         0.255119976         0.491679992         0.500819987
O         0.744879991         0.508319977         0.499179981
O         0.755120009         0.008320000         0.499179981
O         0.244880007         0.991680023         0.500819987
O         0.744879991         0.491679992         0.999180046
O         0.255119976         0.508319977         0.000820000
O         0.500760019         0.244749996         0.449540004
O         0.499239981         0.755249989         0.550459963
O         0.999239949         0.255250004         0.949540037
O         0.000760078         0.744750042         0.050460012
O         0.499239981         0.244749996         0.050460012
O         0.500760019         0.755249989         0.949540037
O         0.000760078         0.255250004         0.550459963
O         0.999239949         0.744750042         0.449540004
O         0.699540037         0.248850006         0.748849994
O         0.300459996         0.751150025         0.251150006
O         0.800459963         0.251150009         0.248849994
O         0.199540020         0.748850006         0.751150006
O         0.300459996         0.248850006         0.751150006
O         0.699540037         0.751150025         0.248849994
O         0.199540020         0.251150009         0.251150006
O         0.800459963         0.748850006         0.748849994

K_POINTS automatic
6 6 6 0 0 0
