&CONTROL
    calculation   = 'scf'
    restart_mode  = 'from_scratch'
    prefix        = 'Landau_15'
    pseudo_dir    = '/cluster/scratch/mnoe/QE/pps'
    outdir        = './'
/
&SYSTEM
    ibrav       = 0
    nat         = 32
    ntyp        = 2
    ecutwfc     = 120
    occupations = 'smearing'
    degauss     = 7.35d-4
    tot_charge  = -0.6
/
&ELECTRONS
    conv_thr    = 1.0d-8
    diagonalization = 'david'
/

CELL_PARAMETERS angstrom
   7.372664648   0.000000000   0.000000000
   0.000000000   7.548199341   0.000000000
   0.000000000   0.000000000   7.372664648

ATOMIC_SPECIES
W 183.84 W_ONCV_LDA-4.0.upf
O 15.9994 O_ONCV_LDA-3.0.upf

ATOMIC_POSITIONS crystal
W 0.263009998	0.27866027899200824	-0.986320043	
W 0.7363200258849456	0.7213397210079917	-0.98698997	
W 0.236990002	0.22133973707768262	-0.48632001	
W 0.7636799728849456	0.7786603121524261	-0.486990002	
W 0.7369899528849456	0.27866027899200824	-0.513679974	
W 0.263679974	0.7213397210079917	-0.513009998	
W 0.7630099808849456	0.22133973707768262	-1.01367999	
W 0.23632001	0.7786603121524261	-1.013009998	
O 0.277719997	0.007452832973650877	-0.972419973	
O 0.7224199558849457	0.9925471575628402	-0.972280036	
O 0.222280003	0.49254719072325814	-0.47242000500000003	
O 0.7775799778849456	0.5074528424371598	-0.472280003	
O 0.7222800188849456	0.007452832973650877	-0.527579995	
O 0.277579995	0.9925471575628402	-0.5277199969999999	
O 0.7777199798849457	0.49254719072325814	-1.027579995	
O 0.222420005	0.5074528424371598	-1.0277199970000002	
O 0.494220025	0.283109984	-0.5427170659470697	
O 0.503779994	0.7265700110453635	-0.45728288275313056	
O 0.005779981	0.21689	-1.0427170659470697	
O 0.996220006	0.7734300210453635	-0.9572829320042755	
O 0.505779975	0.283109984	-0.9572829320042755	
O 0.496220006	0.7265700110453635	-1.0427170659470697	
O 0.994219993	0.21689	-0.45728288275313056	
O 0.003780007	0.7734300210453635	-0.5427170659470697	
O 0.7072828838681849	0.226570011	-0.25378002411505435	
O 0.29271704883201527	0.7168900010453635	-0.755779975	
O 0.7927171183619238	0.273430005	-0.753779994	
O 0.20728291805293025	0.7831100310453635	-0.25577999811505436	
O 0.29271704883201527	0.226570011	-1.2462200231150546	
O 0.7072828838681849	0.7168900010453635	-0.744220025	
O 0.20728291805293025	0.273430005	-0.7462200059999999	
O 0.7927171183619238	0.7831100310453635	-1.2442200101150545	

K_POINTS automatic
6 6 6 0 0 0
