&CONTROL
    calculation   = 'scf'
    restart_mode  = 'from_scratch'
    prefix        = 'Landau_2'
    pseudo_dir    = '/cluster/scratch/mnoe/QE/pps'
    outdir        = './'
/
&SYSTEM
    ibrav       = 0
    nat         = 32
    ntyp        = 2
    ecutwfc     = 120
    occupations = 'smearing'
    degauss     = 7.35d-4
    tot_charge  = -0.84
/
&ELECTRONS
    conv_thr    = 1.0d-8
    diagonalization = 'david'
/

CELL_PARAMETERS angstrom
   7.323451589   0.000000000   0.000000000
   0.000000000   7.748971362   0.000000000
   0.000000000   0.000000000   7.323599597

ATOMIC_SPECIES
W 183.84 W_ONCV_LDA-4.0.upf
O 15.9994 O_ONCV_LDA-3.0.upf

ATOMIC_POSITIONS crystal
W         0.249080001         0.281860003         0.000870000
W         0.750919966         0.718139997         0.999130040
W         0.250919999         0.218140012         0.500869993
W         0.749080034         0.781859972         0.499130007
W         0.750919966         0.281860003         0.499130007
W         0.249080001         0.718139997         0.500869993
W         0.749080034         0.218140012         0.999130040
W         0.250919999         0.781859972         0.000870000
O         0.248289999         0.008320000         0.000270000
O         0.751709969         0.991680023         0.999729981
O         0.251710001         0.491679992         0.500270019
O         0.748290031         0.508319977         0.499729981
O         0.751709969         0.008320000         0.499729981
O         0.248289999         0.991680023         0.500270019
O         0.748290031         0.491679992         0.999729981
O         0.251710001         0.508319977         0.000270000
O         0.500249997         0.248249988         0.449540004
O         0.499750003         0.751749965         0.550459963
O         0.999750035         0.251749996         0.949540037
O         0.000249982         0.748250004         0.050460012
O         0.499750003         0.248249988         0.050460012
O         0.500249997         0.751749965         0.949540037
O         0.000249982         0.251749996         0.550459963
O         0.999750035         0.748250004         0.449540004
O         0.699540037         0.249620007         0.749620007
O         0.300459996         0.750380009         0.250379977
O         0.800459963         0.250379978         0.249619958
O         0.199540020         0.749620022         0.750379993
O         0.300459996         0.249620007         0.750379993
O         0.699540037         0.750380009         0.249619958
O         0.199540020         0.250379978         0.250379977
O         0.800459963         0.749620022         0.749620007

K_POINTS automatic
6 6 6 0 0 0
