
&CONTROL
    calculation   = 'vc-relax'
    restart_mode  = 'from_scratch'
    prefix        = 'Landau_30'
    pseudo_dir    = '/cluster/scratch/mnoe/QE/pps'
    outdir        = './'
    forc_conv_thr = 1.0d-7
    etot_conv_thr = 1.0d-7

/
&SYSTEM
    ibrav       = 0
    nat         = 32
    ntyp        = 2
    ecutwfc     = 120
    occupations = 'smearing'
    degauss     = 7.35d-4
    tot_charge  = -0.0
/
&ELECTRONS
    conv_thr    = 1.0d-8
    diagonalization = 'david'
/


&IONS
ion_dynamics = 'bfgs'
/

&CELL
cell_dynamics = 'bfgs'
cell_dofree = 'all'
/
CELL_PARAMETERS angstrom
        7.3236460686         0.0000000000         0.0000000000
        0.0000000000         7.7495899200         0.0000000000
        0.0000000000         0.0000000000         7.3236460686

ATOMIC_SPECIES
W 183.84 W_ONCV_LDA-4.0.upf
O 15.9994 O_ONCV_LDA-3.0.upf

ATOMIC_POSITIONS crystal
        0.236129994         0.281860003         0.013100000 0 0 0
        0.763870006         0.718139997         0.986899942 0 0 0
        0.263870006         0.218140012         0.513100026 0 0 0
        0.736129994         0.781859972         0.486900007 0 0 0
        0.763870006         0.281860003         0.486900007 0 0 0
        0.236129994         0.718139997         0.513100026 0 0 0
        0.736129994         0.218140012         0.986899942 0 0 0
        0.263870006         0.781859972         0.013100000 0 0 0
        0.224409998         0.008320000         0.004080000 0 0 0
        0.775590018         0.991680023         0.995920023 0 0 0
        0.275590018         0.491679992         0.504080009 0 0 0
        0.724409982         0.508319977         0.495919991 0 0 0
        0.775590018         0.008320000         0.495919991 0 0 0
        0.224409998         0.991680023         0.504080009 0 0 0
        0.724409982         0.491679992         0.995920023 0 0 0
        0.275590018         0.508319977         0.004080000 0 0 0
        0.503790033         0.223739997         0.449540004 0 0 0
        0.496209967         0.776260034         0.550459963 0 0 0
        0.996209967         0.276260003         0.949540037 0 0 0
        0.003790021         0.723739997         0.050460012 0 0 0
        0.496209967         0.223739997         0.050460012 0 0 0
        0.503790033         0.776260034         0.949540037 0 0 0
        0.003790021         0.276260003         0.550459963 0 0 0
        0.996209967         0.723739997         0.449540004 0 0 0
        0.699540037         0.244269997         0.744249968 0 0 0
        0.300459996         0.755730003         0.255749999 0 0 0
        0.800459963         0.255730003         0.244250066 0 0 0
        0.199540020         0.744269967         0.755750032 0 0 0
        0.300459996         0.244269997         0.755750032 0 0 0
        0.699540037         0.755730003         0.244250066 0 0 0
        0.199540020         0.255730003         0.255749999 0 0 0
        0.800459963         0.744269967         0.744249968 0 0 0

K_POINTS automatic
6 6 6 0 0 0
