
&CONTROL
    calculation   = 'vc-relax'
    restart_mode  = 'from_scratch'
    prefix        = 'Landau_1'
    pseudo_dir    = '/cluster/scratch/mnoe/QE/pps'
    outdir        = './'
    forc_conv_thr = 1.0d-7
    etot_conv_thr = 1.0d-7

/
&SYSTEM
    ibrav       = 0
    nat         = 32
    ntyp        = 2
    ecutwfc     = 120
    occupations = 'smearing'
    degauss     = 7.35d-4
    tot_charge  = -0.0
/
&ELECTRONS
    conv_thr    = 1.0d-8
    diagonalization = 'david'
/


&IONS
ion_dynamics = 'bfgs'
/

&CELL
cell_dynamics = 'bfgs'
cell_dofree = 'all'
/
CELL_PARAMETERS angstrom
        7.3236460686         0.0000000000         0.0000000000
        0.0000000000         7.7495899200         0.0000000000
        0.0000000000         0.0000000000         7.3236460686

ATOMIC_SPECIES
W 183.84 W_ONCV_LDA-4.0.upf
O 15.9994 O_ONCV_LDA-3.0.upf

ATOMIC_POSITIONS crystal
0.249540001	0.28195050630406004	0.00044	 0 0 0
0.750460016	0.71804949369594	0.999559974	 0 0 0
0.250459999	0.218049508576015	0.500439994	 0 0 0
0.749539984	0.78195047530406	0.499560006	 0 0 0
0.750460016	0.28195050630406004	0.499560006	 0 0 0
0.249540001	0.71804949369594	0.500439994	 0 0 0
0.749539984	0.218049508576015	0.999559974	 0 0 0
0.250459999	0.78195047530406	0.00044	 0 0 0
0.249149997	0.008491252907995	0.00014	 0 0 0
0.750850036	0.99150877030787	0.999860009	 0 0 0
0.25085002	0.491508739060025	0.500140023	 0 0 0
0.749149964	0.5084912301878199	0.499859977	 0 0 0
0.750850036	0.008491252907995	0.499859977	 0 0 0
0.249149997	0.99150877030787	0.500140023	 0 0 0
0.749149964	0.491508739060025	0.999860009	 0 0 0
0.25085002	0.5084912301878199	0.00014	 0 0 0
0.500129996	0.249119995	0.4500077917698	 0 0 0
0.499870004	0.750880021	0.549992175749875	 0 0 0
0.999869972	0.250880005	0.95000782438604	 0 0 0
0.000129938	0.74912001	0.04999222458198	 0 0 0
0.499870004	0.249119995	0.04999222458198	 0 0 0
0.500129996	0.750880021	0.95000782438604	 0 0 0
0.000129938	0.250880005	0.549992175749875	 0 0 0
0.999869972	0.74912001	0.4500077917698	 0 0 0
0.700007825033635	0.249809988	0.749810003	 0 0 0
0.29999220861396003	0.750189997	0.250190013	 0 0 0
0.79999217548604	0.250190012	0.249809987	 0 0 0
0.200007807777795	0.749809973	0.750189997	 0 0 0
0.29999220861396003	0.249809988	0.750189997	 0 0 0
0.700007825033635	0.750189997	0.249809987	 0 0 0
0.200007807777795	0.250190012	0.250190013	 0 0 0
0.79999217548604	0.749809973	0.749810003	 0 0 0

K_POINTS automatic
6 6 6 0 0 0
