&CONTROL
    calculation   = 'scf'
    restart_mode  = 'from_scratch'
    prefix        = 'Landau_22'
    pseudo_dir    = '/cluster/scratch/mnoe/QE/pps'
    outdir        = './'
/
&SYSTEM
    ibrav       = 0
    nat         = 32
    ntyp        = 2
    ecutwfc     = 120
    occupations = 'smearing'
    degauss     = 7.35d-4
    tot_charge  = -0.84
/
&ELECTRONS
    conv_thr    = 1.0d-8
    diagonalization = 'david'
/

CELL_PARAMETERS angstrom
   7.437567882   0.000000000   0.000000000
   0.000000000   7.618272958   0.000000000
   0.000000000   0.000000000   7.434399459

ATOMIC_SPECIES
W 183.84 W_ONCV_LDA-4.0.upf
O 15.9994 O_ONCV_LDA-3.0.upf

ATOMIC_POSITIONS crystal
W        0.23983001	0.28933119508000005	0.00961	
W        0.760169958	0.71066880492	0.990390005	
W        0.26016999	0.21066881001999999	0.509609995	
W        0.739830042	0.78933116408	0.490390005	
W       0.760169958	0.28933119508000005	0.490390005	
W       0.23983001	0.71066880492	0.509609995	
W       0.739830042	0.21066881001999999	0.990390005	
W       0.26016999	0.78933116408	0.00961	
O        0.231229998	0.022457200659999996	0.00299	
O        0.768770002	0.9775428401599999	0.997009996	
O        0.268769986	0.47754278870000005	0.502990004	
O        0.731229998	0.52245720076	0.497009996	
O        0.768770002	0.022457200659999996	0.497009996	
O        0.231229998	0.9775428401599999	0.502990004	
O        0.731229998	0.47754278870000005	0.997009996	
O        0.268769986	0.52245720076	0.00299	
O    0.502780018	0.230749996	0.4881566304	
O    0.497219982	0.769250019	0.5118433794999999	
O    0.997219982	0.269250019	0.98815663172	
O    0.002779961	0.73074995	0.011843414640000001	
O   0.497219982	0.230749996	0.011843414640000001	
O   0.502780018	0.769250019	0.98815663172	
O   0.002779961	0.269250019	0.5118433794999999	
O   0.997219982	0.73074995	0.4881566304	
O   0.73815668518	0.2458	0.745779968	
O   0.26184340128	0.7542	0.254220016	
O   0.76184335772	0.254199985	0.245779984	
O   0.23815664706	0.745800031	0.754220032	
O   0.26184340128	0.2458	0.754220032	
O   0.73815668518	0.7542	0.245779984	
O   0.23815664706	0.254199985	0.254220016	
O   0.76184335772	0.745800031	0.745779968	

K_POINTS automatic
6 6 6 0 0 0
