
&CONTROL
    calculation   = 'vc-relax'
    restart_mode  = 'from_scratch'
    prefix        = 'Landau_3'
    pseudo_dir    = '/cluster/scratch/mnoe/QE/pps'
    outdir        = './'
    forc_conv_thr = 1.0d-7
    etot_conv_thr = 1.0d-7

/
&SYSTEM
    ibrav       = 0
    nat         = 32
    ntyp        = 2
    ecutwfc     = 120
    occupations = 'smearing'
    degauss     = 7.35d-4
    tot_charge  = -0.0
/
&ELECTRONS
    conv_thr    = 1.0d-8
    diagonalization = 'david'
/


&IONS
ion_dynamics = 'bfgs'
/

&CELL
cell_dynamics = 'bfgs'
cell_dofree = 'all'
/
CELL_PARAMETERS angstrom
        7.3236460686         0.0000000000         0.0000000000
        0.0000000000         7.7495899200         0.0000000000
        0.0000000000         0.0000000000         7.3236460686

ATOMIC_SPECIES
W 183.84 W_ONCV_LDA-4.0.upf
O 15.9994 O_ONCV_LDA-3.0.upf

ATOMIC_POSITIONS crystal
W 0.2481773290248236	0.27953499408511134	0.0008470166916327456	 0 0 0
W 0.7509499139388482	0.7204650059148887	-0.001771213205730247	 0 0 0
W 0.2518226709751764	0.22046502168732277	0.5008470170163515	 0 0 0
W 0.7490500619177622	0.7795349870305688	0.4982287838967803	 0 0 0
W 0.7518226570925508	0.27953499408511134	0.4991529829836485	 0 0 0
W 0.24905007325259534	0.7204650059148887	0.5017712161032197	 0 0 0
W 0.7481773187640597	0.22046502168732277	-0.0008470149681260571	 0 0 0
W 0.25094992674740463	0.7795349870305688	0.0017712149292369356	 0 0 0
O 0.24730683232901216	0.007686598620098721	-0.00044561286297377996	 0 0 0
O 0.7524218863693538	-0.0076865918412150815	-0.0012594082866336292	 0 0 0
O 0.252693165647741	0.49231340110424243	0.4995543843644286	 0 0 0
O 0.7475780887379061	0.5076865918412151	0.4987405908890807	 0 0 0
O 0.752693151465375	0.007686598620098721	0.5004456135623676	 0 0 0
O 0.2475780967755961	-0.0076865918412150815	0.5012594070377155	 0 0 0
O 0.7473068236418849	0.49231340110424243	0.0004456123384282679	 0 0 0
O 0.25242190120115704	0.5076865918412151	0.0012594077620881172	 0 0 0
O 0.5005707556949874	0.24718568857648	0.4552251082594198	 0 0 0
O 0.4998124115513635	0.7524326403641237	0.5447748842309058	 0 0 0
O -0.0005707565442518448	0.2528143091754678	0.9552251412594198	 0 0 0
O 0.00018758632547579842	0.7475673588286837	0.04477488611242498	 0 0 0
O 0.4994292443050126	0.24718568857648	0.04477488611242498	 0 0 0
O 0.5001875884486365	0.7524326403641237	0.9552251412594198	 0 0 0
O 0.0005707519482337272	0.2528143091754678	0.5447748842309058	 0 0 0
O -0.00018759092149391596	0.7475673588286837	0.4552251082594198	 0 0 0
O 0.70522512812804	0.2503019875763719	0.7495516281695916	 0 0 0
O 0.2947748793816343	0.7514469963585351	0.25070114163483714	 0 0 0
O 0.7947748965898517	0.2496980116742775	0.2495516445750316	 0 0 0
O 0.20522512425941986	0.7485530028842291	0.750701130100177	 0 0 0
O 0.2947748793816343	0.2503019875763719	0.7504483491857201	 0 0 0
O 0.70522512812804	0.7514469963585351	0.24929886323594264	 0 0 0
O 0.20522512425941986	0.2496980116742775	0.2504483602957482	 0 0 0
O 0.7947748965898517	0.7485530028842291	0.7492988472551347	 0 0 0

K_POINTS automatic
6 6 6 0 0 0
