
&CONTROL
    calculation   = 'vc-relax'
    restart_mode  = 'from_scratch'
    prefix        = 'Landau_7'
    pseudo_dir    = '/cluster/scratch/mnoe/QE/pps'
    outdir        = './'
    forc_conv_thr = 1.0d-7
    etot_conv_thr = 1.0d-7

/
&SYSTEM
    ibrav       = 0
    nat         = 32
    ntyp        = 2
    ecutwfc     = 120
    occupations = 'smearing'
    degauss     = 7.35d-4
    tot_charge  = -0.0
/
&ELECTRONS
    conv_thr    = 1.0d-8
    diagonalization = 'david'
/


&IONS
ion_dynamics = 'bfgs'
/

&CELL
cell_dynamics = 'bfgs'
cell_dofree = 'all'
/
CELL_PARAMETERS angstrom
        7.3236460686         0.0000000000         0.0000000000
        0.0000000000         7.7495899200         0.0000000000
        0.0000000000         0.0000000000         7.3236460686

ATOMIC_SPECIES
W 183.84 W_ONCV_LDA-4.0.upf
O 15.9994 O_ONCV_LDA-3.0.upf

ATOMIC_POSITIONS crystal
W 0.25	0.27907412751886096	0.0	 0 0 0
W 0.7499999851912464	0.720925872481139	0.0	 0 0 0
W 0.25	0.2209258884066861	0.5	 0 0 0
W 0.7499999851912464	0.7790741252108211	0.5	 0 0 0
W 0.7499999851912464	0.27907412751886096	0.5	 0 0 0
W 0.25	0.720925872481139	0.5	 0 0 0
W 0.7499999851912464	0.2209258884066861	0.0	 0 0 0
W 0.25	0.7790741252108211	0.0	 0 0 0
O 0.25	0.007561044899790815	0.0	 0 0 0
O 0.7499999851912464	0.9924389586637201	0.0	 0 0 0
O 0.25	0.4924389563556802	0.5	 0 0 0
O 0.7499999851912464	0.5075610413362799	0.5	 0 0 0
O 0.7499999851912464	0.007561044899790815	0.5	 0 0 0
O 0.25	0.9924389586637201	0.5	 0 0 0
O 0.7499999851912464	0.4924389563556802	0.0	 0 0 0
O 0.25	0.5075610413362799	0.0	 0 0 0
O 0.5	0.25	0.4563520176927711	 0 0 0
O 0.5	0.7499999988832065	0.5436479798502831	 0 0 0
O 0.0	0.25	0.9563520506927712	 0 0 0
O 0.0	0.7499999988832065	0.04364797239191006	 0 0 0
O 0.5	0.25	0.04364797239191006	 0 0 0
O 0.5	0.7499999988832065	0.9563520506927712	 0 0 0
O 0.0	0.25	0.5436479798502831	 0 0 0
O 0.0	0.7499999988832065	0.4563520176927711	 0 0 0
O 0.7063520349584705	0.25	0.7499999851912464	 0 0 0
O 0.2936479674984752	0.7499999988832065	0.25	 0 0 0
O 0.7936479946590367	0.25	0.25	 0 0 0
O 0.20635203369277116	0.7499999988832065	0.7499999851912464	 0 0 0
O 0.2936479674984752	0.25	0.7499999851912464	 0 0 0
O 0.7063520349584705	0.7499999988832065	0.25	 0 0 0
O 0.20635203369277116	0.25	0.25	 0 0 0
O 0.7936479946590367	0.7499999988832065	0.7499999851912464	 0 0 0

K_POINTS automatic
6 6 6 0 0 0
