&CONTROL
    calculation   = 'scf'
    restart_mode  = 'from_scratch'
    prefix        = 'Landau_20'
    pseudo_dir    = '/cluster/scratch/mnoe/QE/pps'
    outdir        = './'
/
&SYSTEM
    ibrav       = 0
    nat         = 32
    ntyp        = 2
    ecutwfc     = 120
    occupations = 'smearing'
    degauss     = 7.35d-4
    tot_charge  = -0.2
/
&ELECTRONS
    conv_thr    = 1.0d-8
    diagonalization = 'david'
/

CELL_PARAMETERS angstrom
   7.384058002   0.000000000   0.000000000
   0.000000000   7.418428055   0.000000000
   0.000000000   0.000000000   7.384058002

ATOMIC_SPECIES
W 183.84 W_ONCV_LDA-4.0.upf
O 15.9994 O_ONCV_LDA-3.0.upf

ATOMIC_POSITIONS crystal
W 0.267340006	0.277587030656011	-0.98174998	
W 0.7317499571799275	0.722412969343989	-0.982659994	
W 0.232659994	0.2224129857702435	-0.481749996	
W 0.7682499641799275	0.7775870748699015	-0.48265999400000004	
W 0.7326599711799275	0.277587030656011	-0.518249987	
W 0.268249987	0.722412969343989	-0.517340006	
W 0.7673399501799275	0.2224129857702435	-1.018249987	
W 0.231749996	0.7775870748699015	-1.017339973	
O 0.286960012	0.00716044829820117	-0.963220004	
O 0.7132199811799275	0.9928395347504536	-0.96304002	
O 0.213039988	0.49283957896434416	-0.46322000399999996	
O 0.7867800051799275	0.5071604652495464	-0.463039988	
O 0.7130399971799275	0.00716044829820117	-0.5367799959999999	
O 0.286779996	0.9928395347504536	-0.536960012	
O 0.7869599891799275	0.49283957896434416	-1.036780028	
O 0.213220004	0.5071604652495464	-1.036960012	
O 0.492300042	0.294149999	-0.540092762596093	
O 0.50505001	0.718750006393818	-0.4599071743375074	
O 0.007700026	0.205850001	-1.040092762596093	
O 0.994950023	0.7812500363938181	-0.9599072453390339	
O 0.507700024	0.294149999	-0.9599072453390339	
O 0.49494999	0.718750006393818	-1.040092762596093	
O 0.992299944	0.205850001	-0.4599071743375074	
O 0.005050004	0.7812500363938181	-0.540092762596093	
O 0.7099071811575799	0.21875	-0.25505002682007255	
O 0.2900927397760204	0.705850052393818	-0.757700024	
O 0.7900928324825651	0.281250015	-0.75505001	
O 0.209907221403907	0.7941499903938181	-0.2577000488200726	
O 0.2900927397760204	0.21875	-1.2449500458200724	
O 0.7099071811575799	0.705850052393818	-0.742300042	
O 0.209907221403907	0.281250015	-0.7449499900000001	
O 0.7900928324825651	0.7941499903938181	-1.2422999668200725	

K_POINTS automatic
6 6 6 0 0 0
