&CONTROL
    calculation   = 'scf'
    restart_mode  = 'from_scratch'
    prefix        = 'Landau_3'
    pseudo_dir    = '/cluster/scratch/mnoe/QE/pps'
    outdir        = './'
    forc_conv_thr = 1.0d-7
    etot_conv_thr = 1.0d-7

/
&SYSTEM
    ibrav       = 0
    nat         = 32
    ntyp        = 2
    ecutwfc     = 120
    occupations = 'smearing'
    degauss     = 7.35d-4
    tot_charge  = -0.36
/
&ELECTRONS
    conv_thr    = 1.0d-8
    diagonalization = 'david'
/

CELL_PARAMETERS angstrom
   7.323446052   0.000000000   0.000000000
   0.000000000   7.748532652   0.000000000
   0.000000000   0.000000000   7.323770734

ATOMIC_SPECIES
W 183.84 W_ONCV_LDA-4.0.upf
O 15.9994 O_ONCV_LDA-3.0.upf

ATOMIC_POSITIONS crystal
W         0.248610007         0.281860003         0.001310000
W         0.751390009         0.718139997         0.998690014
W         0.251389976         0.218140012         0.501309986
W         0.748609991         0.781859972         0.498690014
W         0.751390009         0.281860003         0.498690014
W         0.248610007         0.718139997         0.501309986
W         0.748609991         0.218140012         0.998690014
W         0.251389976         0.781859972         0.001310000
O         0.247439995         0.008320000         0.000410000
O         0.752560005         0.991680023         0.999589990
O         0.252560021         0.491679992         0.500410010
O         0.747439995         0.508319977         0.499590023
O         0.752560005         0.008320000         0.499590023
O         0.247439995         0.991680023         0.500410010
O         0.747439995         0.491679992         0.999589990
O         0.252560021         0.508319977         0.000410000
O         0.500379993         0.247369999         0.449540004
O         0.499620007         0.752630001         0.550459963
O         0.999620007         0.252630001         0.949540037
O         0.000380039         0.747370029         0.050460012
O         0.499620007         0.247369999         0.050460012
O         0.500379993         0.752630001         0.949540037
O         0.000380039         0.252630001         0.550459963
O         0.999620007         0.747370029         0.449540004
O         0.699540037         0.249429995         0.749419983
O         0.300459996         0.750570021         0.250580017
O         0.800459963         0.250570005         0.249419934
O         0.199540020         0.749430010         0.750580017
O         0.300459996         0.249429995         0.750580017
O         0.699540037         0.750570021         0.249419934
O         0.199540020         0.250570005         0.250580017
O         0.800459963         0.749430010         0.749419983

K_POINTS automatic
6 6 6 0 0 0
