&CONTROL
    calculation   = 'scf'
    restart_mode  = 'from_scratch'
    prefix        = 'Landau_26'
    pseudo_dir    = '/cluster/scratch/mnoe/QE/pps'
    outdir        = './'
/
&SYSTEM
    ibrav       = 0
    nat         = 32
    ntyp        = 2
    ecutwfc     = 120
    occupations = 'smearing'
    degauss     = 7.35d-4
    tot_charge  = -0.68
/
&ELECTRONS
    conv_thr    = 1.0d-8
    diagonalization = 'david'
/

CELL_PARAMETERS angstrom
   7.339563455   0.000000000   0.000000000
   0.000000000   7.623982832   0.000000000
   0.000000000   0.000000000   7.339563455

ATOMIC_SPECIES
W 183.84 W_ONCV_LDA-4.0.upf
O 15.9994 O_ONCV_LDA-3.0.upf

ATOMIC_POSITIONS crystal
W 0.27337998999999996	0.281860003	0.250659982	
W -0.25065997399999995	0.718139997	-0.7266200100000001	
W 0.22662002700000006	0.218140012	0.750660023	
W 0.750659982	0.781859972	0.7733799729999999	
W 0.726620018	0.281860003	0.7493399599999999	
W 0.25066004000000003	0.718139997	0.72662001	
W -0.22662000999999998	0.218140012	-0.7506599740000001	
W 0.249339977	0.781859972	0.22662001800000003	
O 0.27571001900000003	0.00832	0.268650043	
O -0.268650001	0.991680023	-0.7242899150000002	
O 0.22428993200000003	0.491679992	0.7686499840000001	
O 0.768650043	0.508319977	0.775710035	
O 0.7242899570000001	0.00832	0.731349999	
O 0.2686499680000001	0.991680023	0.724289948	
O -0.22428991500000006	0.491679992	-0.7686500010000001	
O 0.23134998299999998	0.508319977	0.22428995700000004	
O 0.49172001199999993	0.277730012	0.6995400039999999	
O 0.4983000259999999	0.7322099289999999	0.800459963	
O -0.991720045	0.22226997299999995	1.199540037	
O 0.0017000430000000321	0.767789981	0.300460012	
O 0.508279988	0.277730012	0.300460012	
O 0.501699974	0.7322099289999999	1.199540037	
O -0.008279919000000031	0.22226997299999995	0.800459963	
O -1.0017000070000002	0.767789981	0.6995400039999999	
O 0.6995400369999999	0.23220998999999998	2.001700007	
O 0.300459996	0.7222699279999999	0.491720012	
O 0.800459963	0.267789995	0.5016999740000001	
O 0.19954001999999996	0.777729982	1.991720045	
O 0.300459996	0.23220998999999998	0.998299957	
O 0.699540037	0.7222699279999999	0.5082799880000001	
O 0.19954002	0.267789995	0.498300026	
O 0.800459963	0.777729982	1.008279919	

K_POINTS automatic
6 6 6 0 0 0
