
&CONTROL
    calculation   = 'vc-relax'
    restart_mode  = 'from_scratch'
    prefix        = 'Landau_6'
    pseudo_dir    = '/cluster/scratch/mnoe/QE/pps'
    outdir        = './'
    forc_conv_thr = 1.0d-7
    etot_conv_thr = 1.0d-7

/
&SYSTEM
    ibrav       = 0
    nat         = 32
    ntyp        = 2
    ecutwfc     = 120
    occupations = 'smearing'
    degauss     = 7.35d-4
    tot_charge  = -0.0
/
&ELECTRONS
    conv_thr    = 1.0d-8
    diagonalization = 'david'
/


&IONS
ion_dynamics = 'bfgs'
/

&CELL
cell_dynamics = 'bfgs'
cell_dofree = 'all'
/
CELL_PARAMETERS angstrom
        7.3236460686         0.0000000000         0.0000000000
        0.0000000000         7.3236460686         0.0000000000
        0.0000000000         0.0000000000         7.7495899200

ATOMIC_SPECIES
W 183.84 W_ONCV_LDA-4.0.upf
O 15.9994 O_ONCV_LDA-3.0.upf

ATOMIC_POSITIONS crystal
W 0.247399996         0.247260010         0.218119991 0 0 0
W 0.752600020         0.752740022         0.218119991 0 0 0
W 0.247260010         0.752600020         0.781880024 0 0 0
W 0.752740022         0.247399996         0.781880024 0 0 0
W 0.252600020         0.747259945         0.281880024 0 0 0
W 0.747400013         0.252739990         0.281880024 0 0 0
W 0.252739990         0.252600020         0.718119976 0 0 0
W 0.747259945         0.747400013         0.718119976 0 0 0
O 0.244459999         0.244480006         0.491670026 0 0 0
O 0.755540001         0.755520010         0.491670026 0 0 0
O 0.244480006         0.755540001         0.508329974 0 0 0
O 0.755520010         0.244459999         0.508329974 0 0 0
O 0.255540017         0.744480022         0.008329987 0 0 0
O 0.744459966         0.255519994         0.008329987 0 0 0
O 0.255519994         0.255540017         0.991670026 0 0 0
O 0.744480022         0.744459966         0.991670026 0 0 0
O 0.199410008         0.499240016         0.254689994 0 0 0
O 0.800589976         0.500759952         0.254689994 0 0 0
O 0.499240016         0.800589976         0.745310036 0 0 0
O 0.500759952         0.199410008         0.745310036 0 0 0
O 0.300589976         0.999240016         0.245310006 0 0 0
O 0.699409992         0.000759989         0.245310006 0 0 0
O 0.000759989         0.300589976         0.754689964 0 0 0
O 0.999240016         0.699409992         0.754689964 0 0 0
O 0.998840000         0.199410008         0.243380000 0 0 0
O 0.001160026         0.800589976         0.243380000 0 0 0
O 0.199410008         0.001160026         0.756619985 0 0 0
O 0.800589976         0.998840000         0.756619985 0 0 0
O 0.501160032         0.699409992         0.256619985 0 0 0
O 0.498839968         0.300589976         0.256619985 0 0 0
O 0.300589976         0.501160032         0.743380015 0 0 0
O 0.699409992         0.498839968         0.743380015 0 0 0

K_POINTS automatic
6 6 6 0 0 0
