&CONTROL
    calculation   = 'scf'
    restart_mode  = 'from_scratch'
    prefix        = 'Landau_8'
    pseudo_dir    = '/cluster/scratch/mnoe/QE/pps'
    outdir        = './'
/
&SYSTEM
    ibrav       = 0
    nat         = 32
    ntyp        = 2
    ecutwfc     = 120
    occupations = 'smearing'
    degauss     = 7.35d-4
    tot_charge  = -1.0
/
&ELECTRONS
    conv_thr    = 1.0d-8
    diagonalization = 'david'
/

CELL_PARAMETERS angstrom
   7.342912117   0.000000000   0.000000000
   0.000000000   7.691942223   0.000000000
   0.000000000   0.000000000   7.342912117

ATOMIC_SPECIES
W 183.84 W_ONCV_LDA-4.0.upf
O 15.9994 O_ONCV_LDA-3.0.upf

ATOMIC_POSITIONS crystal
W 0.2356119956	0.2810613917239454	-0.0004119927999999993	
W 0.7504119977548578	0.7189386082760546	-0.014387984400000019	
W 0.2643880044	0.218938623541376	0.4995880044	
W 0.7495880029548578	0.7810613689489084	0.4856119956	
W 0.7643879893548577	0.2810613917239454	0.5004119955999999	
W 0.2495880044	0.7189386082760546	0.5143880044	
W 0.7356120113548578	0.218938623541376	0.00041200199999997644	
W 0.2504119956	0.7810613689489084	0.014387993599999996	
O 0.234175992	0.00810243460443594	-0.011479985600000004	
O 0.7614799785548578	-0.008102417176185072	-0.01582398839999999	
O 0.2658239884	0.49189756004877794	0.48851999079999997	
O 0.7385200101548578	0.5081024171761851	0.4841759984	
O 0.7658239813548577	0.00810243460443594	0.5114800024	
O 0.2385199844	-0.008102417176185072	0.5158239948	
O 0.7341760073548578	0.49189756004877794	0.01147998280000002	
O 0.261479996	0.5081024171761851	0.015823985600000003	
O 0.5050919976	0.2329400012	0.45149276570256586	
O 0.5010439912	0.7609480013798208	0.5485072100530399	
O -0.0050919848000000045	0.2670599868	0.9514927987025659	
O -0.0010439851999999986	0.7390520249798208	0.048507242868435246	
O 0.4949080024	0.2329400012	0.048507242868435246	
O 0.49895600879999996	0.7609480013798208	0.9514927987025659	
O 0.005091977600000006	0.2670599868	0.5485072100530399	
O 0.001043978000000001	0.7390520249798208	0.45149276570256586	
O 0.7014927941921023	0.2609479884	0.7489560177548578	
O 0.2985072300522919	0.7670600121798209	0.2550919976	
O 0.7985072142981822	0.23905199959999998	0.2489560348	
O 0.2014927817025659	0.7329400141798208	0.7550920065548578	
O 0.2985072300522919	0.2609479884	0.7510440069548578	
O 0.7014927941921023	0.7670600121798209	0.24490802840000003	
O 0.2014927817025659	0.23905199959999998	0.25104399120000004	
O 0.7985072142981822	0.7329400141798208	0.7449080181548577	

K_POINTS automatic
6 6 6 0 0 0
