
&CONTROL
    calculation   = 'vc-relax'
    restart_mode  = 'from_scratch'
    prefix        = 'Landau_28'
    pseudo_dir    = '/cluster/scratch/mnoe/QE/pps'
    outdir        = './'
    forc_conv_thr = 1.0d-7
    etot_conv_thr = 1.0d-7

/
&SYSTEM
    ibrav       = 0
    nat         = 32
    ntyp        = 2
    ecutwfc     = 120
    occupations = 'smearing'
    degauss     = 7.35d-4
    tot_charge  = -0.0
/
&ELECTRONS
    conv_thr    = 1.0d-8
    diagonalization = 'david'
/


&IONS
ion_dynamics = 'bfgs'
/

&CELL
cell_dynamics = 'bfgs'
cell_dofree = 'all'
/
CELL_PARAMETERS angstrom
        7.3236460686         0.0000000000         0.0000000000
        0.0000000000         7.3236460686         0.0000000000
        0.0000000000         0.0000000000         7.7495899200

ATOMIC_SPECIES
W 183.84 W_ONCV_LDA-4.0.upf
O 15.9994 O_ONCV_LDA-3.0.upf

ATOMIC_POSITIONS crystal
W 0.237860002         0.237230008         0.218119991 0 0 0
W 0.762140031         0.762769976         0.218119991 0 0 0
W 0.237230008         0.762140031         0.781880024 0 0 0
W 0.762769976         0.237860002         0.781880024 0 0 0
W 0.262139998         0.737229992         0.281880024 0 0 0
W 0.737859937         0.262769992         0.281880024 0 0 0
W 0.262769992         0.262139998         0.718119976 0 0 0
W 0.737229992         0.737859937         0.718119976 0 0 0
O 0.224130002         0.224260009         0.491670026 0 0 0
O 0.775869949         0.775740040         0.491670026 0 0 0
O 0.224260009         0.775869949         0.508329974 0 0 0
O 0.775740040         0.224130002         0.508329974 0 0 0
O 0.275869982         0.724259992         0.008329987 0 0 0
O 0.724130018         0.275740008         0.008329987 0 0 0
O 0.275740008         0.275869982         0.991670026 0 0 0
O 0.724259992         0.724130018         0.991670026 0 0 0
O 0.199410008         0.496469991         0.271869996 0 0 0
O 0.800589976         0.503530042         0.271869996 0 0 0
O 0.496469991         0.800589976         0.728129973 0 0 0
O 0.503530042         0.199410008         0.728129973 0 0 0
O 0.300589976         0.996469991         0.228130019 0 0 0
O 0.699409992         0.003529996         0.228130019 0 0 0
O 0.003529996         0.300589976         0.771870027 0 0 0
O 0.996469991         0.699409992         0.771870027 0 0 0
O 0.994609980         0.199410008         0.219100000 0 0 0
O 0.005389988         0.800589976         0.219100000 0 0 0
O 0.199410008         0.005389988         0.780900031 0 0 0
O 0.800589976         0.994609980         0.780900031 0 0 0
O 0.505389987         0.699409992         0.280900000 0 0 0
O 0.494610078         0.300589976         0.280900000 0 0 0
O 0.300589976         0.505389987         0.719099969 0 0 0
O 0.699409992         0.494610078         0.719099969 0 0 0

K_POINTS automatic
6 6 6 0 0 0
