
&CONTROL
    calculation   = 'vc-relax'
    restart_mode  = 'from_scratch'
    prefix        = 'Landau_28'
    pseudo_dir    = '/cluster/scratch/mnoe/QE/pps'
    outdir        = './'
    forc_conv_thr = 1.0d-7
    etot_conv_thr = 1.0d-7

/
&SYSTEM
    ibrav       = 0
    nat         = 32
    ntyp        = 2
    ecutwfc     = 120
    occupations = 'smearing'
    degauss     = 7.35d-4
    tot_charge  = -0.0
/
&ELECTRONS
    conv_thr    = 1.0d-8
    diagonalization = 'david'
/


&IONS
ion_dynamics = 'bfgs'
/

&CELL
cell_dynamics = 'bfgs'
cell_dofree = 'all'
/
CELL_PARAMETERS angstrom
        7.3236460686         0.0000000000         0.0000000000
        0.0000000000         7.7495899200         0.0000000000
        0.0000000000         0.0000000000         7.3236460686

ATOMIC_SPECIES
W 183.84 W_ONCV_LDA-4.0.upf
O 15.9994 O_ONCV_LDA-3.0.upf

ATOMIC_POSITIONS crystal
0.275180008	0.281860003	0.25071997499999993	 0 0 0
-0.25072000699999997	0.718139997	-0.7248200570000002	 0 0 0
0.224820024	0.218140012	0.75072004	 0 0 0
0.750719975	0.781859972	0.775180008	 0 0 0
0.7248200250000001	0.281860003	0.749279992	 0 0 0
0.25072004000000003	0.718139997	0.724820024	 0 0 0
-0.22482005700000007	0.218140012	-0.7507200070000001	 0 0 0
0.24927999199999995	0.781859972	0.22482002500000003	 0 0 0
0.277690007	0.00832	0.27009001099999996	 0 0 0
-0.27009001499999985	0.991680023	-0.722309993	 0 0 0
0.22231002600000005	0.491679992	0.770090048	 0 0 0
0.770090011	0.508319977	0.777690007	 0 0 0
0.722309989	0.00832	0.729909985	 0 0 0
0.270090048	0.991680023	0.722310026	 0 0 0
-0.22230999299999987	0.491679992	-0.770090015	 0 0 0
0.22990998500000004	0.508319977	0.22230998899999999	 0 0 0
0.49108999	0.27985998600000006	0.6995400039999999	 0 0 0
0.4981699319999999	0.730839911	0.800459963	 0 0 0
-0.991089974	0.220140014	1.199540037	 0 0 0
0.0018299830000000298	0.7691599979999999	0.300460012	 0 0 0
0.5089100099999999	0.27985998600000006	0.300460012	 0 0 0
0.501830068	0.730839911	1.199540037	 0 0 0
-0.008910060999999919	0.220140014	0.800459963	 0 0 0
-1.001830018	0.7691599979999999	0.6995400039999999	 0 0 0
0.6995400369999999	0.23084000200000004	2.0018300350000002	 0 0 0
0.300459996	0.720139923	0.4910900070000001	 0 0 0
0.800459963	0.269159998	0.501830051	 0 0 0
0.19954001999999996	0.779859986	1.991089957	 0 0 0
0.300459996	0.23084000200000004	0.99817	 0 0 0
0.699540037	0.720139923	0.5089099930000001	 0 0 0
0.19954002	0.269159998	0.4981699490000001	 0 0 0
0.800459963	0.779859986	1.008910078	 0 0 0

K_POINTS automatic
6 6 6 0 0 0
