&CONTROL
    calculation   = 'scf'
    restart_mode  = 'from_scratch'
    prefix        = 'Landau_10'
    pseudo_dir    = '/cluster/scratch/mnoe/QE/pps'
    outdir        = './'
/
&SYSTEM
    ibrav       = 0
    nat         = 32
    ntyp        = 2
    ecutwfc     = 120
    occupations = 'smearing'
    degauss     = 7.35d-4
    tot_charge  = -0.2
/
&ELECTRONS
    conv_thr    = 1.0d-8
    diagonalization = 'david'
/

CELL_PARAMETERS angstrom
   7.442052603   0.000000000   0.000000000
   0.000000000   7.647778808   0.000000000
   0.000000000   0.000000000   7.438781043

ATOMIC_SPECIES
W 183.84 W_ONCV_LDA-4.0.upf
O 15.9994 O_ONCV_LDA-3.0.upf

ATOMIC_POSITIONS crystal
W 0.2424568081348838	0.27410997328370434	-0.0033616494485108547	
W 0.7470754610249521	0.7258900267162957	-0.007723184667541792	
W 0.2575431918651162	0.22589004429107593	0.49663834670674484	
W 0.7529244634726564	0.7741100221018961	0.4922768061200514	
W 0.7575431455506264	0.27410997328370434	0.5033616532932551	
W 0.252924505542948	0.7258900267162957	0.5077231938799486	
W 0.7424567789469823	0.22589004429107593	0.0033616523195861294	
W 0.24707549445705201	0.7741100221018961	0.007723187538617067	
O 0.24411279400100136	0.006208662066995739	-0.00954718833074516	
O 0.7526336020510401	-0.006208693137383657	-0.010902836054787073	
O 0.2558871941152436	0.49379135568080806	0.49045279853720614	
O 0.7473663134588546	0.5062086931373837	0.4890971540587276	
O 0.7558871565887407	0.006208662066995739	0.5095472021368723	
O 0.2473663407493499	-0.006208693137383657	0.5109028466153509	
O 0.744112758921154	0.49379135568080806	0.009547187456939644	
O 0.25263364736689503	0.5062086931373837	0.010902835180981557	
O 0.5029294922262236	0.2433408536823242	0.46849035153139945	
O 0.5016662171051608	0.7520814352119717	0.5315097004363529	
O -0.002929476872212327	0.256659142572795	0.9684903845313995	
O -0.0016662038732486507	0.7479186377962196	0.031509592374749935	
O 0.49707050777377637	0.2433408536823242	0.031509592374749935	
O 0.49833378289483915	0.7520814352119717	0.9684903845313995	
O 0.0029294859847556155	0.256659142572795	0.5315097004363529	
O 0.0016662129857919392	0.7479186377962196	0.46849035153139945	
O 0.7184903407601332	0.25953495680107047	0.7505584593912362	
O 0.2815096072721144	0.7614423917688756	0.25247336958931377	
O 0.7815097416328389	0.24046503421121562	0.25055849881514536	
O 0.21849036753139947	0.7385576810645547	0.7524733382793131	
O 0.2815096072721144	0.25953495680107047	0.7494414830818003	
O 0.7184903407601332	0.7614423917688756	0.24752663852459464	
O 0.21849036753139947	0.24046503421121562	0.24944150929876308	
O 0.7815097416328389	0.7385576810645547	0.7475266041937234	

K_POINTS automatic
6 6 6 0 0 0
