
&CONTROL
    calculation   = 'vc-relax'
    restart_mode  = 'from_scratch'
    prefix        = 'Landau_37'
    pseudo_dir    = '/cluster/scratch/mnoe/QE/pps'
    outdir        = './'
    forc_conv_thr = 1.0d-7
    etot_conv_thr = 1.0d-7

/
&SYSTEM
    ibrav       = 0
    nat         = 32
    ntyp        = 2
    ecutwfc     = 120
    occupations = 'smearing'
    degauss     = 7.35d-4
    tot_charge  = -0.0
/
&ELECTRONS
    conv_thr    = 1.0d-8
    diagonalization = 'david'
/


&IONS
ion_dynamics = 'bfgs'
/

&CELL
cell_dynamics = 'bfgs'
cell_dofree = 'all'
/
CELL_PARAMETERS angstrom
        7.3236460686         0.0000000000         0.0000000000
        0.0000000000         7.7495899200         0.0000000000
        0.0000000000         0.0000000000         7.3236460686

ATOMIC_SPECIES
W 183.84 W_ONCV_LDA-4.0.upf
O 15.9994 O_ONCV_LDA-3.0.upf

ATOMIC_POSITIONS crystal
W 0.25	0.2671346611711222	0.0	 0 0 0
W 0.7499999217251596	0.7328653388288777	0.0	 0 0 0
W 0.25	0.23286535872105504	0.5	 0 0 0
W 0.7499999217251596	0.7671347818286255	0.5	 0 0 0
W 0.7499999217251596	0.2671346611711222	0.5	 0 0 0
W 0.25	0.7328653388288777	0.5	 0 0 0
W 0.7499999217251596	0.23286535872105504	0.0	 0 0 0
W 0.25	0.7671347818286255	0.0	 0 0 0
O 0.25	0.004308380184608597	0.0	 0 0 0
O 0.7499999217251596	0.9956915400796634	0.0	 0 0 0
O 0.25	0.4956916607371667	0.5	 0 0 0
O 0.7499999217251596	0.5043084599203366	0.5	 0 0 0
O 0.7499999217251596	0.004308380184608597	0.5	 0 0 0
O 0.25	0.9956915400796634	0.5	 0 0 0
O 0.7499999217251596	0.4956916607371667	0.0	 0 0 0
O 0.25	0.5043084599203366	0.0	 0 0 0
O 0.5	0.25	0.4855463620903617	 0 0 0
O 0.5	0.7500000583826629	0.5144537663514963	 0 0 0
O 0.0	0.25	0.9855463950903618	 0 0 0
O 0.0	0.7500000583826629	0.01445351692866749	 0 0 0
O 0.5	0.25	0.01445351692866749	 0 0 0
O 0.5	0.7500000583826629	0.9855463950903618	 0 0 0
O 0.0	0.25	0.5144537663514963	 0 0 0
O 0.0	0.7500000583826629	0.4855463620903617	 0 0 0
O 0.7355463119233441	0.25	0.7499999217251596	 0 0 0
O 0.2644535596347976	0.7500000583826629	0.25	 0 0 0
O 0.7644538446263367	0.25	0.25	 0 0 0
O 0.23554637809036177	0.7500000583826629	0.7499999217251596	 0 0 0
O 0.2644535596347976	0.25	0.7499999217251596	 0 0 0
O 0.7355463119233441	0.7500000583826629	0.25	 0 0 0
O 0.23554637809036177	0.25	0.25	 0 0 0
O 0.7644538446263367	0.7500000583826629	0.7499999217251596	 0 0 0

K_POINTS automatic
6 6 6 0 0 0
