
&CONTROL
    calculation   = 'vc-relax'
    restart_mode  = 'from_scratch'
    prefix        = 'Landau_37'
    pseudo_dir    = '/cluster/scratch/mnoe/QE/pps'
    outdir        = './'
    forc_conv_thr = 1.0d-7
    etot_conv_thr = 1.0d-7

/
&SYSTEM
    ibrav       = 0
    nat         = 16
    ntyp        = 2
    ecutwfc     = 120
    occupations = 'smearing'
    degauss     = 7.35d-4
    tot_charge  = -0.0
/
&ELECTRONS
    conv_thr    = 1.0d-8
    diagonalization = 'david'
/


&IONS
ion_dynamics = 'bfgs'
/

&CELL
cell_dynamics = 'bfgs'
cell_dofree = 'all'
/
CELL_PARAMETERS angstrom
        5.177959919             0.0             0.0
        0.0             5.177959919             0.0
        0.0             0.0            7.7496299744

ATOMIC_SPECIES
W 183.84 W_ONCV_LDA-4.0.upf
O 15.9994 O_ONCV_LDA-3.0.upf

ATOMIC_POSITIONS crystal
W     0.24999999999990571	0.2499999999998321	0.2055586281025532	 0 0 0
W     0.7500000229999173	0.7500000229999688	0.7944413868938698	 0 0 0
W     0.7500000230000275	0.7500000230000715	0.2944413868974447	 0 0 0
W     0.2499999999998885	0.25000000000005307	0.7055586131061304	 0 0 0
O W   0.24999999999959968	0.24999999999987318	0.4678987496170795	 0 0 0
O W   0.7500000229999889	0.7500000230004773	0.5321012503884195	 0 0 0
O W   0.7500000229998104	0.750000023000028	0.032101263382928055	 0 0 0
O W   0.24999999999965747	0.2500000000000796	0.967898749611568	 0 0 0
O     0.5143602659228704	0.48563968807702274	0.250000000000062	 0 0 0
O     0.4856397341166234	0.5143603118834212	0.7499999999999979	 0 0 0
O     -0.014360282922475633	1.0143603119222713	0.25000000000000605	 0 0 0
O     1.0143602198839168	-0.014360248883768578	0.7500000000003022	 0 0 0
O     1.01436031192251	0.5143602659224549	0.25000000000023237	 0 0 0
O     -0.014360248883405882	0.4856397341165882	0.7499999999999634	 0 0 0
O     0.4856396880773134	-0.014360282922611912	0.24999999999982464	 0 0 0
O     0.5143603118839423	1.0143602198838453	0.7499999999996227	 0 0 0

K_POINTS automatic
6 6 6 0 0 0
