
&CONTROL
    calculation   = 'vc-relax'
    restart_mode  = 'from_scratch'
    prefix        = 'Landau_23'
    pseudo_dir    = '/cluster/scratch/mnoe/QE/pps'
    outdir        = './'
    forc_conv_thr = 1.0d-7
    etot_conv_thr = 1.0d-7

/
&SYSTEM
    ibrav       = 0
    nat         = 32
    ntyp        = 2
    ecutwfc     = 120
    occupations = 'smearing'
    degauss     = 7.35d-4
    tot_charge  = -0.0
/
&ELECTRONS
    conv_thr    = 1.0d-8
    diagonalization = 'david'
/


&IONS
ion_dynamics = 'bfgs'
/

&CELL
cell_dynamics = 'bfgs'
cell_dofree = 'all'
/
CELL_PARAMETERS angstrom
        7.3236460686         0.0000000000         0.0000000000
        0.0000000000         7.7495899200         0.0000000000
        0.0000000000         0.0000000000         7.3236460686

ATOMIC_SPECIES
W 183.84 W_ONCV_LDA-4.0.upf
O 15.9994 O_ONCV_LDA-3.0.upf

ATOMIC_POSITIONS crystal
W 0.259970013	0.2794115528272063	-0.989510009	 0 0 0
W 0.7395099958784582	0.7205884471727937	-0.990029971	 0 0 0
W 0.240030003	0.22058846299289	-0.489509993	 0 0 0
W 0.7604900098784583	0.7794115782501934	-0.490030003	 0 0 0
W 0.7400299578784583	0.2794115528272063	-0.510490007	 0 0 0
W 0.260490007	0.7205884471727937	-0.509970013	 0 0 0
W 0.7599699838784583	0.22058846299289	-1.010490023	 0 0 0
W 0.239509993	0.7794115782501934	-1.009969997	 0 0 0
O 0.271250007	0.007657502246465673	-0.978849981	 0 0 0
O 0.7288499678784582	0.9923424935315108	-0.978749961	 0 0 0
O 0.22875001	0.4923425189544979	-0.47885001299999996	 0 0 0
O 0.7711499738784583	0.5076575064684892	-0.47875001	 0 0 0
O 0.7287499478784583	0.007657502246465673	-0.521149987	 0 0 0
O 0.271149987	0.9923424935315108	-0.521250007	 0 0 0
O 0.7712499938784583	0.4923425189544979	-1.021149987	 0 0 0
O 0.228850013	0.5076575064684892	-1.021250007	 0 0 0
O 0.49556994	0.275380024	-0.5445540782927534	 0 0 0
O 0.502899999	0.7320300233014454	-0.4554458786440667	 0 0 0
O 0.004429996	0.224619992	-1.0445540782927534	 0 0 0
O 0.997100001	0.7679700013014454	-0.9554459126699445	 0 0 0
O 0.504429995	0.275380024	-0.9554459126699445	 0 0 0
O 0.497100001	0.7320300233014454	-1.0445540782927534	 0 0 0
O 0.995570005	0.224619992	-0.4554458786440667	 0 0 0
O 0.002900005	0.7679700013014454	-0.5445540782927534	 0 0 0
O 0.7054458757656085	0.232030011	-0.25290001812154167	 0 0 0
O 0.2945540651712117	0.7246199883014455	-0.754429995	 0 0 0
O 0.7945541184774749	0.267969989	-0.752899999	 0 0 0
O 0.20544590570724652	0.7753800363014454	-0.2544300091215417	 0 0 0
O 0.2945540651712117	0.232030011	-1.2471000141215416	 0 0 0
O 0.7054458757656085	0.7246199883014455	-0.74556994	 0 0 0
O 0.20544590570724652	0.267969989	-0.747100001	 0 0 0
O 0.7945541184774749	0.7753800363014454	-1.2455700181215417	 0 0 0

K_POINTS automatic
6 6 6 0 0 0
