
&CONTROL
    calculation   = 'vc-relax'
    restart_mode  = 'from_scratch'
    prefix        = 'Landau_23'
    pseudo_dir    = '/cluster/scratch/mnoe/QE/pps'
    outdir        = './'
    forc_conv_thr = 1.0d-7
    etot_conv_thr = 1.0d-7

/
&SYSTEM
    ibrav       = 0
    nat         = 32
    ntyp        = 2
    ecutwfc     = 120
    occupations = 'smearing'
    degauss     = 7.35d-4
    tot_charge  = -0.0
/
&ELECTRONS
    conv_thr    = 1.0d-8
    diagonalization = 'david'
/


&IONS
ion_dynamics = 'bfgs'
/

&CELL
cell_dynamics = 'bfgs'
cell_dofree = 'all'
/
CELL_PARAMETERS angstrom
        7.3236460686         0.0000000000         0.0000000000
        0.0000000000         7.7495899200         0.0000000000
        0.0000000000         0.0000000000         7.3236460686

ATOMIC_SPECIES
W 183.84 W_ONCV_LDA-4.0.upf
O 15.9994 O_ONCV_LDA-3.0.upf

ATOMIC_POSITIONS crystal
W 0.2420309066391423	0.27282771575115233	0.007525409134231204	 0 0 0
W 0.7579690380253821	0.7271722842488476	-0.007525399226709752	 0 0 0
W 0.2579690933608577	0.2271723022496303	0.5075254134418492	 0 0 0
W 0.742030865949568	0.7728277777754196	0.49247458655815074	 0 0 0
W 0.7579690380253821	0.27282771575115233	0.49247458655815074	 0 0 0
W 0.2420309066391423	0.7271722842488476	0.5075254134418492	 0 0 0
W 0.742030865949568	0.2271723022496303	-0.007525399226709752	 0 0 0
W 0.2579690933608577	0.7728277777754196	0.007525409134231204	 0 0 0
O 0.23529809405382235	0.005859337087935984	0.0023390365918625556	 0 0 0
O 0.7647018368263243	-0.005859377104375049	-0.002339039607195161	 0 0 0
O 0.26470189905398883	0.49414068491989216	0.5023390253920557	 0 0 0
O 0.7352980671486257	0.505859377104375	0.49766096039280483	 0 0 0
O 0.7647018368263243	0.005859337087935984	0.49766096039280483	 0 0 0
O 0.23529809405382235	-0.005859377104375049	0.5023390253920557	 0 0 0
O 0.7352980671486257	0.49414068491989216	-0.002339039607195161	 0 0 0
O 0.26470189905398883	0.505859377104375	0.0023390365918625556	 0 0 0
O 0.5021796581707398	0.23491902969759274	0.47162572349204135	 0 0 0
O 0.49782034182926016	0.7650810067755766	0.5283743425337913	 0 0 0
O -0.0021796723858793434	0.2650809573795532	0.9716257564920414	 0 0 0
O 0.0021796366326496635	0.7349190790936161	0.028374208486039845	 0 0 0
O 0.49782034182926016	0.23491902969759274	0.028374208486039845	 0 0 0
O 0.5021796581707398	0.7650810067755766	0.9716257564920414	 0 0 0
O 0.0021796366326496635	0.2650809573795532	0.5283743425337913	 0 0 0
O -0.0021796723858793434	0.7349190790936161	0.47162572349204135	 0 0 0
O 0.7216257054787336	0.246708980684391	0.746696014986909	 0 0 0
O 0.27837422849543353	0.7532910691423942	0.253303937000566	 0 0 0
O 0.7783743905463163	0.253291019315609	0.24669609099895118	 0 0 0
O 0.22162573949204137	0.7467090171575603	0.753303888988041	 0 0 0
O 0.27837422849543353	0.246708980684391	0.753303888988041	 0 0 0
O 0.7216257054787336	0.7532910691423942	0.24669609099895118	 0 0 0
O 0.22162573949204137	0.253291019315609	0.253303937000566	 0 0 0
O 0.7783743905463163	0.7467090171575603	0.746696014986909	 0 0 0

K_POINTS automatic
6 6 6 0 0 0
