
&CONTROL
    calculation   = 'vc-relax'
    restart_mode  = 'from_scratch'
    prefix        = 'Landau_32'
    pseudo_dir    = '/cluster/scratch/mnoe/QE/pps'
    outdir        = './'
    forc_conv_thr = 1.0d-7
    etot_conv_thr = 1.0d-7

/
&SYSTEM
    ibrav       = 0
    nat         = 32
    ntyp        = 2
    ecutwfc     = 120
    occupations = 'smearing'
    degauss     = 7.35d-4
    tot_charge  = -0.0
/
&ELECTRONS
    conv_thr    = 1.0d-8
    diagonalization = 'david'
/


&IONS
ion_dynamics = 'bfgs'
/

&CELL
cell_dynamics = 'bfgs'
cell_dofree = 'all'
/
CELL_PARAMETERS angstrom
        7.3236460686         0.0000000000         0.0000000000
        0.0000000000         7.7495899200         0.0000000000
        0.0000000000         0.0000000000         7.3236460686

ATOMIC_SPECIES
W 183.84 W_ONCV_LDA-4.0.upf
O 15.9994 O_ONCV_LDA-3.0.upf

ATOMIC_POSITIONS crystal
W 0.25	0.2773993113486668	0.0	 0 0 0
W 0.7499999762885011	0.7226006886513332	0.0	 0 0 0
W 0.25	0.2226007051333018	0.5	 0 0 0
W 0.7499999762885011	0.777399326289696	0.5	 0 0 0
W 0.7499999762885011	0.2773993113486668	0.5	 0 0 0
W 0.25	0.7226006886513332	0.5	 0 0 0
W 0.7499999762885011	0.2226007051333018	0.0	 0 0 0
W 0.25	0.777399326289696	0.0	 0 0 0
O 0.25	0.0071047753059459515	0.0	 0 0 0
O 0.7499999762885011	0.9928952165727117	0.0	 0 0 0
O 0.25	0.49289523151374093	0.5	 0 0 0
O 0.7499999762885011	0.5071047834272883	0.5	 0 0 0
O 0.7499999762885011	0.0071047753059459515	0.5	 0 0 0
O 0.25	0.9928952165727117	0.5	 0 0 0
O 0.7499999762885011	0.49289523151374093	0.0	 0 0 0
O 0.25	0.5071047834272883	0.0	 0 0 0
O 0.5	0.25	0.4604472727612326	 0 0 0
O 0.5	0.7500000072295303	0.5395527431437339	 0 0 0
O 0.0	0.25	0.9604473057612326	 0 0 0
O 0.0	0.7500000072295303	0.039552701743644246	 0 0 0
O 0.5	0.25	0.039552701743644246	 0 0 0
O 0.5	0.7500000072295303	0.9604473057612326	 0 0 0
O 0.0	0.25	0.5395527431437339	 0 0 0
O 0.0	0.7500000072295303	0.4604472727612326	 0 0 0
O 0.7104472805677651	0.25	0.7499999762885011	 0 0 0
O 0.2895527035272684	0.7500000072295303	0.25	 0 0 0
O 0.7895527668552328	0.25	0.25	 0 0 0
O 0.21044728876123261	0.7500000072295303	0.7499999762885011	 0 0 0
O 0.2895527035272684	0.25	0.7499999762885011	 0 0 0
O 0.7104472805677651	0.7500000072295303	0.25	 0 0 0
O 0.21044728876123261	0.25	0.25	 0 0 0
O 0.7895527668552328	0.7500000072295303	0.7499999762885011	 0 0 0

K_POINTS automatic
6 6 6 0 0 0
