
&CONTROL
    calculation   = 'vc-relax'
    restart_mode  = 'from_scratch'
    prefix        = 'Landau_12'
    pseudo_dir    = '/cluster/scratch/mnoe/QE/pps'
    outdir        = './'
    forc_conv_thr = 1.0d-7
    etot_conv_thr = 1.0d-7

/
&SYSTEM
    ibrav       = 0
    nat         = 32
    ntyp        = 2
    ecutwfc     = 120
    occupations = 'smearing'
    degauss     = 7.35d-4
    tot_charge  = -0.0
/
&ELECTRONS
    conv_thr    = 1.0d-8
    diagonalization = 'david'
/


&IONS
ion_dynamics = 'bfgs'
/

&CELL
cell_dynamics = 'bfgs'
cell_dofree = 'all'
/
CELL_PARAMETERS angstrom
        7.3236460686         0.0000000000         0.0000000000
        0.0000000000         7.3236460686         0.0000000000
        0.0000000000         0.0000000000         7.7495899200

ATOMIC_SPECIES
W 183.84 W_ONCV_LDA-4.0.upf
O 15.9994 O_ONCV_LDA-3.0.upf

ATOMIC_POSITIONS crystal
W 0.244800009         0.244530000         0.218119991 0 0 0
W 0.755200024         0.755470000         0.218119991 0 0 0
W 0.244530000         0.755200024         0.781880024 0 0 0
W 0.755470000         0.244800009         0.781880024 0 0 0
W 0.255199991         0.744530032         0.281880024 0 0 0
W 0.744799944         0.255469984         0.281880024 0 0 0
W 0.255469984         0.255199991         0.718119976 0 0 0
W 0.744530032         0.744799944         0.718119976 0 0 0
O 0.238910002         0.238969991         0.491670026 0 0 0
O 0.761089949         0.761030041         0.491670026 0 0 0
O 0.238969991         0.761089949         0.508329974 0 0 0
O 0.761030041         0.238910002         0.508329974 0 0 0
O 0.261089982         0.738969991         0.008329987 0 0 0
O 0.738910018         0.261030025         0.008329987 0 0 0
O 0.261030025         0.261089982         0.991670026 0 0 0
O 0.738969991         0.738910018         0.991670026 0 0 0
O 0.199410008         0.498489995         0.259369990 0 0 0
O 0.800589976         0.501510038         0.259369990 0 0 0
O 0.498489995         0.800589976         0.740630041 0 0 0
O 0.501510038         0.199410008         0.740630041 0 0 0
O 0.300589976         0.998489995         0.240629995 0 0 0
O 0.699409992         0.001509994         0.240629995 0 0 0
O 0.001509994         0.300589976         0.759369959 0 0 0
O 0.998489995         0.699409992         0.759369959 0 0 0
O 0.997690029         0.199410008         0.236760000 0 0 0
O 0.002309978         0.800589976         0.236760000 0 0 0
O 0.199410008         0.002309978         0.763239970 0 0 0
O 0.800589976         0.997690029         0.763239970 0 0 0
O 0.502309971         0.699409992         0.263239970 0 0 0
O 0.497689964         0.300589976         0.263239970 0 0 0
O 0.300589976         0.502309971         0.736760030 0 0 0
O 0.699409992         0.497689964         0.736760030 0 0 0

K_POINTS automatic
6 6 6 0 0 0
