&CONTROL
    calculation   = 'scf'
    restart_mode  = 'from_scratch'
    prefix        = 'Landau_2'
    pseudo_dir    = '/cluster/scratch/mnoe/QE/pps'
    outdir        = './'
/
&SYSTEM
    ibrav       = 0
    nat         = 32
    ntyp        = 2
    ecutwfc     = 120
    occupations = 'smearing'
    degauss     = 7.35d-4
    tot_charge  = -0.2
/
&ELECTRONS
    conv_thr    = 1.0d-8
    diagonalization = 'david'
/

CELL_PARAMETERS angstrom
   7.350208288   0.000000000   0.000000000
   0.000000000   7.729004586   0.000000000
   0.000000000   0.000000000   7.350520806

ATOMIC_SPECIES
W 183.84 W_ONCV_LDA-4.0.upf
O 15.9994 O_ONCV_LDA-3.0.upf

ATOMIC_POSITIONS crystal
W 0.24861407071985084	0.280289170434983	0.001308766805953253	
W 0.7513859196565882	0.719710829565017	-0.0013087650829060437	
W 0.2513859292801492	0.21971084508689223	0.5013087675551042	
W 0.7486140636434031	0.7802891556131164	0.49869123244489577	
W 0.7513859196565882	0.280289170434983	0.49869123244489577	
W 0.24861407071985084	0.719710829565017	0.5013087675551042	
W 0.7486140636434031	0.21971084508689223	-0.0013087650829060437	
W 0.2513859292801492	0.7802891556131164	0.001308766805953253	
O 0.2474431467919691	0.007892058623988866	0.0004067889724978358	
O 0.7525568411871868	-0.007892046583369556	-0.00040678949690350625	
O 0.2525568520093894	0.49210793859476387	0.5004067870247053	
O 0.7474431421128045	0.5078920465833695	0.49959321050309646	
O 0.7525568411871868	0.007892058623988866	0.49959321050309646	
O 0.2474431467919691	-0.007892046583369556	0.5004067870247053	
O 0.7474431421128045	0.49210793859476387	-0.00040678949690350625	
O 0.2525568520093894	0.5078920465833695	0.0004067889724978358	
O 0.5003790709862156	0.2473772225561031	0.45338099869426807	
O 0.49962092901378435	0.7526227713957524	0.5466189855276159	
O -0.00037907345841379884	0.25262277519644405	0.953381031694268	
O 0.00037906724046081106	0.7473772187554115	0.04661900269322432	
O 0.49962092901378435	0.2473772225561031	0.04661900269322432	
O 0.5003790709862156	0.7526227713957524	0.953381031694268	
O 0.00037906724046081106	0.25262277519644405	0.5466189855276159	
O -0.00037907345841379884	0.7473772187554115	0.45338099869426807	
O 0.7033810228223885	0.2494276488146767	0.7494253939107668	
O 0.2966189929557276	0.7505723474595468	0.25057459773922885	
O 0.7966189938776203	0.2505723511853233	0.24942540713025238	
O 0.2033810146942681	0.7494276427665322	0.7505745893892245	
O 0.2966189929557276	0.2494276488146767	0.7505745893892245	
O 0.7033810228223885	0.7505723474595468	0.24942540713025238	
O 0.2033810146942681	0.2505723511853233	0.25057459773922885	
O 0.7966189938776203	0.7494276427665322	0.7494253939107668	

K_POINTS automatic
6 6 6 0 0 0
