
&CONTROL
    calculation   = 'vc-relax'
    restart_mode  = 'from_scratch'
    prefix        = 'Landau_5'
    pseudo_dir    = '/cluster/scratch/mnoe/QE/pps'
    outdir        = './'
    forc_conv_thr = 1.0d-7
    etot_conv_thr = 1.0d-7

/
&SYSTEM
    ibrav       = 0
    nat         = 32
    ntyp        = 2
    ecutwfc     = 120
    occupations = 'smearing'
    degauss     = 7.35d-4
    tot_charge  = -0.0
/
&ELECTRONS
    conv_thr    = 1.0d-8
    diagonalization = 'david'
/


&IONS
ion_dynamics = 'bfgs'
/

&CELL
cell_dynamics = 'bfgs'
cell_dofree = 'all'
/
CELL_PARAMETERS angstrom
        7.3236460686         0.0000000000         0.0000000000
        0.0000000000         7.7495899200         0.0000000000
        0.0000000000         0.0000000000         7.3236460686

ATOMIC_SPECIES
W 183.84 W_ONCV_LDA-4.0.upf
O 15.9994 O_ONCV_LDA-3.0.upf

ATOMIC_POSITIONS crystal
W 0.25	0.28116301992947923	0.0	 0 0 0
W 0.7499999962950783	0.7188369800705208	0.0	 0 0 0
W 0.25	0.2188369953020784	0.5	 0 0 0
W 0.7499999962950783	0.781162996107765	0.5	 0 0 0
W 0.7499999962950783	0.28116301992947923	0.5	 0 0 0
W 0.25	0.7188369800705208	0.5	 0 0 0
W 0.7499999962950783	0.2188369953020784	0.0	 0 0 0
W 0.25	0.781162996107765	0.0	 0 0 0
O 0.25	0.008130121141554054	0.0	 0 0 0
O 0.7499999962950783	0.9918698969957362	0.0	 0 0 0
O 0.25	0.49186987317402203	0.5	 0 0 0
O 0.7499999962950783	0.5081301030042638	0.5	 0 0 0
O 0.7499999962950783	0.008130121141554054	0.5	 0 0 0
O 0.25	0.9918698969957362	0.5	 0 0 0
O 0.7499999962950783	0.49186987317402203	0.0	 0 0 0
O 0.25	0.5081301030042638	0.0	 0 0 0
O 0.5	0.25	0.4512442647439426	 0 0 0
O 0.5	0.7499999884733641	0.5487557098974584	 0 0 0
O 0.0	0.25	0.9512442977439426	 0 0 0
O 0.0	0.7499999884733641	0.04875574477244441	 0 0 0
O 0.5	0.25	0.04875574477244441	 0 0 0
O 0.5	0.7499999884733641	0.9512442977439426	 0 0 0
O 0.0	0.25	0.5487557098974584	 0 0 0
O 0.0	0.7499999884733641	0.4512442647439426	 0 0 0
O 0.7012442938074633	0.25	0.7499999962950783	 0 0 0
O 0.2987557315511357	0.7499999884733641	0.25	 0 0 0
O 0.7987557136023801	0.25	0.25	 0 0 0
O 0.2012442807439426	0.7499999884733641	0.7499999962950783	 0 0 0
O 0.2987557315511357	0.25	0.7499999962950783	 0 0 0
O 0.7012442938074633	0.7499999884733641	0.25	 0 0 0
O 0.2012442807439426	0.25	0.25	 0 0 0
O 0.7987557136023801	0.7499999884733641	0.7499999962950783	 0 0 0

K_POINTS automatic
6 6 6 0 0 0
