
&CONTROL
    calculation   = 'vc-relax'
    restart_mode  = 'from_scratch'
    prefix        = 'Landau_15'
    pseudo_dir    = '/cluster/scratch/mnoe/QE/pps'
    outdir        = './'
    forc_conv_thr = 1.0d-7
    etot_conv_thr = 1.0d-7

/
&SYSTEM
    ibrav       = 0
    nat         = 32
    ntyp        = 2
    ecutwfc     = 120
    occupations = 'smearing'
    degauss     = 7.35d-4
    tot_charge  = -0.0
/
&ELECTRONS
    conv_thr    = 1.0d-8
    diagonalization = 'david'
/


&IONS
ion_dynamics = 'bfgs'
/

&CELL
cell_dynamics = 'bfgs'
cell_dofree = 'all'
/
CELL_PARAMETERS angstrom
        7.3236460686         0.0000000000         0.0000000000
        0.0000000000         7.3236460686         0.0000000000
        0.0000000000         0.0000000000         7.7495899200

ATOMIC_SPECIES
W 183.84 W_ONCV_LDA-4.0.upf
O 15.9994 O_ONCV_LDA-3.0.upf

ATOMIC_POSITIONS crystal
W 0.243499991         0.243159997         0.218119991 0 0 0
W 0.756500026         0.756840003         0.218119991 0 0 0
W 0.243159997         0.756500026         0.781880024 0 0 0
W 0.756840003         0.243499991         0.781880024 0 0 0
W 0.256500009         0.743160029         0.281880024 0 0 0
W 0.743500007         0.256839987         0.281880024 0 0 0
W 0.256839987         0.256500009         0.718119976 0 0 0
W 0.743160029         0.743500007         0.718119976 0 0 0
O 0.236139993         0.236210011         0.491670026 0 0 0
O 0.763859974         0.763790038         0.491670026 0 0 0
O 0.236210011         0.763859974         0.508329974 0 0 0
O 0.763790038         0.236139993         0.508329974 0 0 0
O 0.263859990         0.736209994         0.008329987 0 0 0
O 0.736139993         0.263790006         0.008329987 0 0 0
O 0.263790006         0.263859990         0.991670026 0 0 0
O 0.736209994         0.736139993         0.991670026 0 0 0
O 0.199410008         0.498110003         0.261719986 0 0 0
O 0.800589976         0.501889997         0.261719986 0 0 0
O 0.498110003         0.800589976         0.738280014 0 0 0
O 0.501889997         0.199410008         0.738280014 0 0 0
O 0.300589976         0.998109970         0.238279998 0 0 0
O 0.699409992         0.001890004         0.238279998 0 0 0
O 0.001890004         0.300589976         0.761719986 0 0 0
O 0.998109970         0.699409992         0.761719986 0 0 0
O 0.997110029         0.199410008         0.233449992 0 0 0
O 0.002889991         0.800589976         0.233449992 0 0 0
O 0.199410008         0.002889991         0.766549993 0 0 0
O 0.800589976         0.997110029         0.766549993 0 0 0
O 0.502890004         0.699409992         0.266549993 0 0 0
O 0.497109996         0.300589976         0.266549993 0 0 0
O 0.300589976         0.502890004         0.733450007 0 0 0
O 0.699409992         0.497109996         0.733450007 0 0 0

K_POINTS automatic
6 6 6 0 0 0
