
&CONTROL
    calculation   = 'vc-relax'
    restart_mode  = 'from_scratch'
    prefix        = 'Landau_11'
    pseudo_dir    = '/cluster/scratch/mnoe/QE/pps'
    outdir        = './'
    forc_conv_thr = 1.0d-7
    etot_conv_thr = 1.0d-7

/
&SYSTEM
    ibrav       = 0
    nat         = 32
    ntyp        = 2
    ecutwfc     = 120
    occupations = 'smearing'
    degauss     = 7.35d-4
    tot_charge  = -0.0
/
&ELECTRONS
    conv_thr    = 1.0d-8
    diagonalization = 'david'
/


&IONS
ion_dynamics = 'bfgs'
/

&CELL
cell_dynamics = 'bfgs'
cell_dofree = 'all'
/
CELL_PARAMETERS angstrom
        7.3236460686         0.0000000000         0.0000000000
        0.0000000000         7.7495899200         0.0000000000
        0.0000000000         0.0000000000         7.3236460686

ATOMIC_SPECIES
W 183.84 W_ONCV_LDA-4.0.upf
O 15.9994 O_ONCV_LDA-3.0.upf

ATOMIC_POSITIONS crystal
W 0.25	0.2774821986724958	0.0	 0 0 0
W 0.7499999767291016	0.7225178013275042	0.0	 0 0 0
W 0.25	0.22251781778193527	0.5	 0 0 0
W 0.7499999767291016	0.7774822127598616	0.5	 0 0 0
W 0.7499999767291016	0.2774821986724958	0.5	 0 0 0
W 0.25	0.7225178013275042	0.5	 0 0 0
W 0.7499999767291016	0.22251781778193527	0.0	 0 0 0
W 0.25	0.7774822127598616	0.0	 0 0 0
O 0.25	0.007127356271099852	0.0	 0 0 0
O 0.7499999767291016	0.9928726361858459	0.0	 0 0 0
O 0.25	0.49287265027321175	0.5	 0 0 0
O 0.7499999767291016	0.5071273638141541	0.5	 0 0 0
O 0.7499999767291016	0.007127356271099852	0.5	 0 0 0
O 0.25	0.9928726361858459	0.5	 0 0 0
O 0.7499999767291016	0.49287265027321175	0.0	 0 0 0
O 0.25	0.5071273638141541	0.0	 0 0 0
O 0.5	0.25	0.46024459694578324	 0 0 0
O 0.5	0.7500000068164674	0.5397554180504448	 0 0 0
O 0.0	0.25	0.9602446299457832	 0 0 0
O 0.0	0.7500000068164674	0.03975537833014439	 0 0 0
O 0.5	0.25	0.03975537833014439	 0 0 0
O 0.5	0.7500000068164674	0.9602446299457832	 0 0 0
O 0.0	0.25	0.5397554180504448	 0 0 0
O 0.0	0.7500000068164674	0.46024459694578324	 0 0 0
O 0.7102446052204536	0.25	0.7499999767291016	 0 0 0
O 0.2897553797833182	0.7500000068164674	0.25	 0 0 0
O 0.7897554413213433	0.25	0.25	 0 0 0
O 0.21024461294578323	0.7500000068164674	0.7499999767291016	 0 0 0
O 0.2897553797833182	0.25	0.7499999767291016	 0 0 0
O 0.7102446052204536	0.7500000068164674	0.25	 0 0 0
O 0.21024461294578323	0.25	0.25	 0 0 0
O 0.7897554413213433	0.7500000068164674	0.7499999767291016	 0 0 0

K_POINTS automatic
6 6 6 0 0 0
