
&CONTROL
    calculation   = 'vc-relax'
    restart_mode  = 'from_scratch'
    prefix        = 'Landau_23'
    pseudo_dir    = '/cluster/scratch/mnoe/QE/pps'
    outdir        = './'
    forc_conv_thr = 1.0d-7
    etot_conv_thr = 1.0d-7

/
&SYSTEM
    ibrav       = 0
    nat         = 32
    ntyp        = 2
    ecutwfc     = 120
    occupations = 'smearing'
    degauss     = 7.35d-4
    tot_charge  = -0.0
/
&ELECTRONS
    conv_thr    = 1.0d-8
    diagonalization = 'david'
/


&IONS
ion_dynamics = 'bfgs'
/

&CELL
cell_dynamics = 'bfgs'
cell_dofree = 'all'
/
CELL_PARAMETERS angstrom
        7.3236460686         0.0000000000         0.0000000000
        0.0000000000         7.7495899200         0.0000000000
        0.0000000000         0.0000000000         7.3236460686

ATOMIC_SPECIES
W 183.84 W_ONCV_LDA-4.0.upf
O 15.9994 O_ONCV_LDA-3.0.upf

ATOMIC_POSITIONS crystal
W 0.27068998899999996	0.28967079472	0.25059	 0 0 0
W -0.2505899779999998	0.71032920528	-0.729309978	 0 0 0
W 0.22931001100000004	0.21032920993	0.750590011	 0 0 0
W 0.75059	0.78967076372	0.770689989	 0 0 0
W 0.72931	0.28967079472	0.749409989	 0 0 0
W 0.250590011	0.71032920528	0.729310011	 0 0 0
W -0.22930997799999986	0.21032920993	-0.7505899779999999	 0 0 0
W 0.249409989	0.78967076372	0.22931	 0 0 0
O 0.27274000499999995	0.02309980069	0.26649997299999995	 0 0 0
O -0.26649994099999996	0.9769002409399999	-0.7272599950000002	 0 0 0
O 0.22725999499999994	0.47690018855000005	0.766500007	 0 0 0
O 0.766499973	0.52309980184	0.772740005	 0 0 0
O 0.727260027	0.02309980069	0.7334999929999999	 0 0 0
O 0.266500007	0.9769002409399999	0.7272599949999999	 0 0 0
O -0.22725999500000005	0.47690018855000005	-0.7664999410000001	 0 0 0
O 0.2334999929999999	0.52309980184	0.22726002700000003	 0 0 0
O 0.492679957	0.27452999	0.7399119316	 0 0 0
O 0.49849998500000003	0.7342699719999999	0.76008808025	 0 0 0
O -0.992679925	0.22546999500000003	1.23991193148	 0 0 0
O 0.001500010999999982	0.765729876	0.26008811476	 0 0 0
O 0.507320043	0.27452999	0.26008811476	 0 0 0
O 0.501500015	0.7342699719999999	1.23991193148	 0 0 0
O -0.007320046999999982	0.22546999500000003	0.76008808025	 0 0 0
O -1.001499983	0.765729876	0.7399119316	 0 0 0
O 0.7399119873699999	0.23427000199999998	2.001499983	 0 0 0
O 0.26008810152	0.7254699189999999	0.492679957	 0 0 0
O 0.76008805748	0.26572998300000006	0.501500015	 0 0 0
O 0.23991194828999995	0.774529929	1.992679925	 0 0 0
O 0.26008810152	0.23427000199999998	0.998499989	 0 0 0
O 0.73991198737	0.7254699189999999	0.507320043	 0 0 0
O 0.23991194829	0.26572998300000006	0.49849998500000003	 0 0 0
O 0.76008805748	0.774529929	1.0073200469999999	 0 0 0

K_POINTS automatic
6 6 6 0 0 0
