&CONTROL
    calculation   = 'scf'
    restart_mode  = 'from_scratch'
    prefix        = 'Landau_18'
    pseudo_dir    = '/cluster/scratch/mnoe/QE/pps'
    outdir        = './'
/
&SYSTEM
    ibrav       = 0
    nat         = 16
    ntyp        = 2
    ecutwfc     = 120
    occupations = 'smearing'
    degauss     = 7.35d-4
    tot_charge  = -0.1
/
&ELECTRONS
    conv_thr    = 1.0d-8
    diagonalization = 'david'
/

CELL_PARAMETERS angstrom
   5.246571174   0.000000000   0.000000000
   0.000000000   5.246571174   0.000000000
   0.000000000   0.000000000   7.672558763

ATOMIC_SPECIES
W 183.84 W_ONCV_LDA-4.0.upf
O 15.9994 O_ONCV_LDA-3.0.upf

ATOMIC_POSITIONS crystal
W       0.24999999999995415	0.24999999999991832	0.2120090576985394	
W       0.7500000229999598	0.7500000229999848	0.7879909572997205	
W       0.7500000230000133	0.7500000230000348	0.28799095730145957	
W       0.24999999999994577	0.2500000000000258	0.7120090427002796	
O      0.24999999999980524	0.2499999999999383	0.4801056212731738	
O      0.7500000229999946	0.7500000230002322	0.5198943787295014	
O      0.7500000229999078	0.7500000230000137	0.019894391726829865	
O      0.24999999999983336	0.25000000000003875	0.9801056212704925	
O       0.4810074143408559	0.5189925396590921	0.25000000000003014	
O       0.5189925856783574	0.4810074603216644	0.749999999999999	
O       0.018992568659336177	0.9810074603405644	0.25000000000000294	
O       0.9810073683219054	0.018992602678166638	0.750000000000147	
O       0.9810074603406805	0.48100741434065375	0.250000000000113	
O       0.01899260267834308	0.5189925856783402	0.7499999999999822	
O       0.5189925396592335	0.018992568659269883	0.24999999999991468	
O       0.4810074603219179	0.9810073683218706	0.7499999999998165	

K_POINTS automatic
9 9 6 0 0 0
