&CONTROL
    calculation   = 'scf'
    restart_mode  = 'from_scratch'
    prefix        = 'chempot_2'
    pseudo_dir    = '/cluster/scratch/mnoe/QE/pps'
    outdir        = './'
/
&SYSTEM
    ibrav       = 0
    nat         = 32 
    ntyp        = 2
    ecutwfc     = 120
    occupations = 'smearing'
    degauss     = 7.35d-4
    tot_charge  = -.20
/
&ELECTRONS
    conv_thr    = 1.0d-8
    diagonalization = 'david'
/
CELL_PARAMETERS angstrom
   7.409275222   0.000000000   0.000000000
   0.000000000   7.670719351   0.000000000
   0.000000000   0.000000000   7.411256772


ATOMIC_SPECIES
W 183.84 W_ONCV_LDA-4.0.upf
O 15.9994 O_ONCV_LDA-3.0.upf

ATOMIC_POSITIONS crystal
W 0.237979985	0.28661439796000004	0.01136	
W 0.762019982	0.71338560204	0.988639992	
W 0.262019998	0.21338561074	0.511359975	
W 0.737980018	0.78661436696	0.488640025	
W 0.762019982	0.28661439796000004	0.488640025	
W 0.237979985	0.71338560204	0.511359975	
W 0.737980018	0.21338561074	0.988639992	
W 0.262019998	0.78661436696	0.01136	
O 0.22781999	0.017316400419999996	0.00353	
O 0.772180043	0.98268363392	0.996469958	
O 0.272180026	0.48268358990000004	0.503530042	
O 0.727819957	0.51731639212	0.496469991	
O 0.772180043	0.017316400419999996	0.496469991	
O 0.22781999	0.98268363392	0.503530042	
O 0.727819957	0.48268358990000004	0.996469958	
O 0.272180026	0.51731639212	0.00353	
O 0.503290007	0.227239989	0.4741142208	
O 0.496709993	0.772760011	0.5258857735	
O 0.996710026	0.272760011	0.97411423364	
O 0.003289938	0.727239958	0.02588581368	
O 0.496709993	0.227239989	0.02588581368	
O 0.503290007	0.772760011	0.97411423364	
O 0.003289938	0.272760011	0.5258857735	
O 0.996710026	0.727239958	0.4741142208	
O 0.72411426766	0.245029999	0.745010019	
O 0.27588579936	0.754970016	0.254989981	
O 0.77588575964	0.254970016	0.245010019	
O 0.22411423722	0.745030015	0.754989981	
O 0.27588579936	0.245029999	0.754989981	
O 0.72411426766	0.754970016	0.245010019	
O 0.22411423722	0.254970016	0.254989981	
O 0.77588575964	0.745030015	0.745010019	

K_POINTS automatic
6 6 6 0 0 0
