&CONTROL
    calculation   = 'scf'
    restart_mode  = 'from_scratch'
    prefix        = 'Landau_15'
    pseudo_dir    = '/cluster/scratch/mnoe/QE/pps'
    outdir        = './'
/
&SYSTEM
    ibrav       = 0
    nat         = 32
    ntyp        = 2
    ecutwfc     = 120
    occupations = 'smearing'
    degauss     = 7.35d-4
    tot_charge  = -0.2
/
&ELECTRONS
    conv_thr    = 1.0d-8
    diagonalization = 'david'
/

CELL_PARAMETERS angstrom
   7.415292988   0.000000000   0.000000000
   0.000000000   7.575133571   0.000000000
   0.000000000   0.000000000   7.433954260

ATOMIC_SPECIES
W 183.84 W_ONCV_LDA-4.0.upf
O 15.9994 O_ONCV_LDA-3.0.upf

ATOMIC_POSITIONS crystal
W 0.22849052259522543	0.2759765478047642	0.005017920711543581	
W 0.756240492991962	0.7240234521952358	-0.021187063538456452	
W 0.2715094774047746	0.2240234691498869	0.5050179207824632	
W 0.7437594545103079	0.7759765773989519	0.4788129042824632	
W 0.771509429010308	0.2759765478047642	0.4949820792175368	
W 0.2437594774047746	0.7240234521952358	0.5211870957175367	
W 0.728490518491962	0.2240234691498869	-0.005017903461543622	
W 0.2562405225952254	0.7759765773989519	0.021187080788456415	
O 0.22202955151806286	0.006717172322486302	-0.010842455633615243	
O 0.7732245029936435	-0.006717190370161771	-0.018987460883615213	
O 0.27797042206078115	0.4932828392240259	0.4891575104452287	
O 0.7267754313984847	0.5067171903701617	0.4810125246952287	
O 0.7779703773984846	0.006717172322486302	0.5108424717968469	
O 0.22677541456078112	-0.006717190370161771	0.5189874575468469	
O 0.7220295569936435	0.4932828392240259	0.010842450383615273	
O 0.27322455901806286	0.5067171903701617	0.018987455633615244	
O 0.5071468261455018	0.22040378550228074	0.46392620956521263	
O 0.4995568141455018	0.7729188161271199	0.5360738219382774	
O -0.007146822490194456	0.27959619199771923	0.9639262425652126	
O 0.00044317675980555483	0.727081284169705	0.03607375170455337	
O 0.4928531738544982	0.22040378550228074	0.03607375170455337	
O 0.5004431858544982	0.7729188161271199	0.9639262425652126	
O 0.007146788645501772	0.27959619199771923	0.5360738219382774	
O -0.00044321060449823866	0.727081284169705	0.46392620956521263	
O 0.713926209336142	0.2595695234792568	0.7464587410663277	
O 0.28607375916036787	0.7710295889642379	0.2579637369195911	
O 0.7860738532126967	0.2404304634106013	0.24645880666959114	
O 0.21392622556521265	0.7289705116455824	0.7579637200663277	
O 0.28607375916036787	0.2595695234792568	0.7535412326562259	
O 0.713926209336142	0.7710295889642379	0.24203631183040888	
O 0.21392622556521265	0.2404304634106013	0.2535412420804089	
O 0.7860738532126967	0.7289705116455824	0.7420362536562258	

K_POINTS automatic
6 6 6 0 0 0
