
&CONTROL
    calculation   = 'vc-relax'
    restart_mode  = 'from_scratch'
    prefix        = 'Landau_13'
    pseudo_dir    = '/cluster/scratch/mnoe/QE/pps'
    outdir        = './'
    forc_conv_thr = 1.0d-7
    etot_conv_thr = 1.0d-7

/
&SYSTEM
    ibrav       = 0
    nat         = 32
    ntyp        = 2
    ecutwfc     = 120
    occupations = 'smearing'
    degauss     = 7.35d-4
    tot_charge  = -0.0
/
&ELECTRONS
    conv_thr    = 1.0d-8
    diagonalization = 'david'
/


&IONS
ion_dynamics = 'bfgs'
/

&CELL
cell_dynamics = 'bfgs'
cell_dofree = 'all'
/
CELL_PARAMETERS angstrom
        7.3236460686         0.0000000000         0.0000000000
        0.0000000000         7.7495899200         0.0000000000
        0.0000000000         0.0000000000         7.3236460686

ATOMIC_SPECIES
W 183.84 W_ONCV_LDA-4.0.upf
O 15.9994 O_ONCV_LDA-3.0.upf

ATOMIC_POSITIONS crystal
W 0.2388638463240618	0.2717849643688156	0.006255337716412127	 0 0 0
W 0.756882270477936	0.7282150356311844	-0.010759942868961557	 0 0 0
W 0.26113615367593823	0.2282150539783987	0.5062553405165816	 0 0 0
W 0.7431176252113698	0.7717850371324648	0.48924003899081	 0 0 0
W 0.7611360906242794	0.2717849643688156	0.4937446594834184	 0 0 0
W 0.24311767170550472	0.7282150356311844	0.51075996100919	 0 0 0
W 0.7388638050650265	0.2282150539783987	-0.006255326515734173	 0 0 0
W 0.2568823282944953	0.7717850371324648	0.010759954069639512	 0 0 0
O 0.23271807717031437	0.0055752606870944615	-0.001510869679646819	 0 0 0
O 0.7659596767196584	-0.005575307978598761	-0.006799541039870629	 0 0 0
O 0.26728191102027515	0.4944247647850505	0.4984891136410827	 0 0 0
O 0.7340402153172525	0.5055753079785987	0.49320045494249487	 0 0 0
O 0.7672818445597144	0.0055752606870944615	0.5015108722363233	 0 0 0
O 0.23404024184496133	-0.005575307978598761	0.5067995309349111	 0 0 0
O 0.7327180474771965	0.4944247647850505	0.0015108662707448445	 0 0 0
O 0.2659597463456282	0.5055753079785987	0.006799537630968654	 0 0 0
O 0.5033979470008613	0.23202047763998157	0.47417545579081927	 0 0 0
O 0.49846964089717216	0.7661192806692619	0.5258246216672587	 0 0 0
O -0.003397955157876809	0.26797950775043844	0.9741754887908193	 0 0 0
O 0.0015303426670503642	0.7338808263928694	0.02582446648717492	 0 0 0
O 0.4966020529991387	0.23202047763998157	0.02582446648717492	 0 0 0
O 0.5015303591028278	0.7661192806692619	0.9741754887908193	 0 0 0
O 0.0033979226515613577	0.26797950775043844	0.5258246216672587	 0 0 0
O -0.0015303751733658157	0.7338808263928694	0.47417545579081927	 0 0 0
O 0.7241754318881731	0.2505417691239415	0.7468808129290968	 0 0 0
O 0.2758244906537487	0.7579829763319532	0.2543512140590281	 0 0 0
O 0.7758246752226906	0.24945822722366348	0.24688089412098413	 0 0 0
O 0.22417547179081931	0.7420171310954176	0.7543511645212307	 0 0 0
O 0.2758244906537487	0.2505417691239415	0.753119090064999	 0 0 0
O 0.7241754318881731	0.7579829763319532	0.24564881759506185	 0 0 0
O 0.22417547179081931	0.24945822722366348	0.25311913753310583	 0 0 0
O 0.7758246752226906	0.7420171310954176	0.7456487384728651	 0 0 0

K_POINTS automatic
6 6 6 0 0 0
