&CONTROL
    calculation   = 'scf'
    restart_mode  = 'from_scratch'
    prefix        = 'Landau_18'
    pseudo_dir    = '/cluster/scratch/mnoe/QE/pps'
    outdir        = './'
/
&SYSTEM
    ibrav       = 0
    nat         = 32
    ntyp        = 2
    ecutwfc     = 120
    occupations = 'smearing'
    degauss     = 7.35d-4
    tot_charge  = -0.2
/
&ELECTRONS
    conv_thr    = 1.0d-8
    diagonalization = 'david'
/

CELL_PARAMETERS angstrom
   7.379968147   0.000000000   0.000000000
   0.000000000   7.473289233   0.000000000
   0.000000000   0.000000000   7.379968147

ATOMIC_SPECIES
W 183.84 W_ONCV_LDA-4.0.upf
O 15.9994 O_ONCV_LDA-3.0.upf

ATOMIC_POSITIONS crystal
W 0.265609985	0.27801632999040987	-0.983579972	
W 0.7335799514619348	0.7219836700095901	-0.984390031	
W 0.234389998	0.22198368629321913	-0.483579988	
W 0.7664199754619347	0.7780163697829114	-0.484389998	
W 0.7343900104619348	0.27801632999040987	-0.516420012	
W 0.266420012	0.7219836700095901	-0.515609985	
W 0.7656099814619347	0.22198368629321913	-1.016419996	
W 0.233579988	0.7780163697829114	-1.0156100019999998	
O 0.28327001	0.007277402168381053	-0.966899979	
O 0.7168999584619348	0.9927225838754082	-0.966730023	
O 0.216730006	0.49272262366790975	-0.466900011	
O 0.7830999684619347	0.5072774161245918	-0.46673000600000003	
O 0.7167300024619347	0.007277402168381053	-0.533100021	
O 0.283100021	0.9927225838754082	-0.5332700100000001	
O 0.7832699894619347	0.49272262366790975	-1.033099989	
O 0.216900011	0.5072774161245918	-1.0332700099999998	
O 0.493070021	0.28973	-0.5411424839364837	
O 0.504539978	0.7218799892544363	-0.45885745770375663	
O 0.006929994	0.21027	-1.0411424839364836	
O 0.995460022	0.7781200492544362	-0.9588575200051306	
O 0.506929979	0.28973	-0.9588575200051306	
O 0.495459989	0.7218799892544363	-1.0411424839364836	
O 0.993070021	0.21027	-0.45885745770375663	
O 0.004539996	0.7781200492544362	-0.5411424839364837	
O 0.7088574622418219	0.221879985	-0.2545400165380653	
O 0.2911424633984183	0.7102700192544362	-0.756929979	
O 0.7911425468343086	0.278119999	-0.754539978	
O 0.20885750006351628	0.7897300192544363	-0.2569300145380653	
O 0.2911424633984183	0.221879985	-1.2454600425380653	
O 0.7088574622418219	0.7102700192544362	-0.7430700210000001	
O 0.20885750006351628	0.278119999	-0.745459989	
O 0.7911425468343086	0.7897300192544363	-1.243070041538065	

K_POINTS automatic
6 6 6 0 0 0
